*SPEF "ieee 1481-1999"
*DESIGN "regfile"
*DATE "09:09:43 Wednesday November 12, 2025"
*VENDOR "The OpenROAD Project"
*PROGRAM "OpenROAD"
*VERSION "v2.0-16235-gedf00dff9"
*DESIGN_FLOW "NAME_SCOPE LOCAL" "PIN_CAP NONE"
*DIVIDER /
*DELIMITER :
*BUS_DELIMITER []
*T_UNIT 1 NS
*C_UNIT 1 PF
*R_UNIT 1 OHM
*L_UNIT 1 HENRY

*NAME_MAP
*1 addr[0]
*2 addr[1]
*3 addr[2]
*4 addr[3]
*5 clk
*6 nrst
*7 rdata[0]
*8 rdata[1]
*9 rdata[2]
*10 rdata[3]
*13 wdata[0]
*14 wdata[1]
*15 wdata[2]
*16 wdata[3]
*17 we
*18 _000_
*19 _001_
*20 _002_
*21 _003_
*22 _004_
*23 _005_
*24 _006_
*25 _007_
*26 _008_
*27 _009_
*28 _010_
*29 _011_
*30 _012_
*31 _013_
*32 _014_
*33 _015_
*34 _016_
*35 _017_
*36 _018_
*37 _019_
*38 _020_
*39 _021_
*40 _022_
*41 _023_
*42 _024_
*43 _025_
*44 _026_
*45 _027_
*46 _028_
*47 _029_
*48 _030_
*49 _031_
*50 _032_
*51 _033_
*52 _034_
*53 _035_
*54 _036_
*55 _037_
*56 _038_
*57 _039_
*58 _040_
*59 _041_
*60 _042_
*61 _043_
*62 _044_
*63 _045_
*64 _046_
*65 _047_
*66 _048_
*67 _049_
*68 _050_
*69 _051_
*70 _052_
*71 _053_
*72 _054_
*73 _055_
*74 _056_
*75 _057_
*76 _058_
*77 _059_
*78 _060_
*79 _061_
*80 _062_
*81 _063_
*82 _064_
*83 _065_
*84 _066_
*85 _067_
*86 _068_
*87 _069_
*88 _070_
*89 _071_
*90 _072_
*91 _073_
*92 _074_
*93 _075_
*94 _076_
*95 _077_
*96 _078_
*97 _079_
*98 _080_
*99 _081_
*100 _082_
*101 _083_
*102 _084_
*103 _085_
*104 _086_
*105 _087_
*106 _088_
*107 _089_
*108 _090_
*109 _091_
*110 _092_
*111 _093_
*112 _094_
*113 _095_
*114 _096_
*115 _097_
*116 _098_
*117 _099_
*118 _100_
*119 _101_
*120 _102_
*121 _103_
*122 _104_
*123 _105_
*124 _106_
*125 _107_
*126 _108_
*127 _109_
*128 _110_
*129 _111_
*130 _112_
*131 _113_
*132 _114_
*133 _115_
*134 _116_
*135 _117_
*136 _118_
*137 _119_
*138 _120_
*139 _121_
*140 _122_
*141 _123_
*142 _124_
*143 _125_
*144 _126_
*145 _127_
*146 _128_
*147 _129_
*148 _130_
*149 _131_
*150 _132_
*151 _133_
*152 _134_
*153 _135_
*154 _136_
*155 _137_
*156 _138_
*157 _139_
*158 _140_
*159 net1
*160 net10
*161 net11
*162 net12
*163 net13
*164 net14
*165 net15
*166 net16
*167 net17
*168 net18
*169 net19
*170 net2
*171 net20
*172 net21
*173 net22
*174 net23
*175 net24
*176 net25
*177 net26
*178 net27
*179 net28
*180 net29
*181 net3
*182 net30
*183 net31
*184 net32
*185 net33
*186 net34
*187 net35
*188 net36
*189 net37
*190 net38
*191 net39
*192 net4
*193 net40
*194 net41
*195 net42
*196 net43
*197 net44
*198 net45
*199 net46
*200 net47
*201 net48
*202 net49
*203 net5
*204 net50
*205 net51
*206 net52
*207 net53
*208 net54
*209 net55
*210 net56
*211 net6
*212 net7
*213 net8
*214 net9
*215 regs\[0\]\[0\]
*216 regs\[0\]\[1\]
*217 regs\[0\]\[2\]
*218 regs\[0\]\[3\]
*219 regs\[10\]\[0\]
*220 regs\[10\]\[1\]
*221 regs\[10\]\[2\]
*222 regs\[10\]\[3\]
*223 regs\[11\]\[0\]
*224 regs\[11\]\[1\]
*225 regs\[11\]\[2\]
*226 regs\[11\]\[3\]
*227 regs\[12\]\[0\]
*228 regs\[12\]\[1\]
*229 regs\[12\]\[2\]
*230 regs\[12\]\[3\]
*231 regs\[13\]\[0\]
*232 regs\[13\]\[1\]
*233 regs\[13\]\[2\]
*234 regs\[13\]\[3\]
*235 regs\[14\]\[0\]
*236 regs\[14\]\[1\]
*237 regs\[14\]\[2\]
*238 regs\[14\]\[3\]
*239 regs\[15\]\[0\]
*240 regs\[15\]\[1\]
*241 regs\[15\]\[2\]
*242 regs\[15\]\[3\]
*243 regs\[1\]\[0\]
*244 regs\[1\]\[1\]
*245 regs\[1\]\[2\]
*246 regs\[1\]\[3\]
*247 regs\[2\]\[0\]
*248 regs\[2\]\[1\]
*249 regs\[2\]\[2\]
*250 regs\[2\]\[3\]
*251 regs\[3\]\[0\]
*252 regs\[3\]\[1\]
*253 regs\[3\]\[2\]
*254 regs\[3\]\[3\]
*255 regs\[4\]\[0\]
*256 regs\[4\]\[1\]
*257 regs\[4\]\[2\]
*258 regs\[4\]\[3\]
*259 regs\[5\]\[0\]
*260 regs\[5\]\[1\]
*261 regs\[5\]\[2\]
*262 regs\[5\]\[3\]
*263 regs\[6\]\[0\]
*264 regs\[6\]\[1\]
*265 regs\[6\]\[2\]
*266 regs\[6\]\[3\]
*267 regs\[7\]\[0\]
*268 regs\[7\]\[1\]
*269 regs\[7\]\[2\]
*270 regs\[7\]\[3\]
*271 regs\[8\]\[0\]
*272 regs\[8\]\[1\]
*273 regs\[8\]\[2\]
*274 regs\[8\]\[3\]
*275 regs\[9\]\[0\]
*276 regs\[9\]\[1\]
*277 regs\[9\]\[2\]
*278 regs\[9\]\[3\]
*279 FILLER_0_109
*280 FILLER_0_113
*281 FILLER_0_116
*282 FILLER_0_119
*283 FILLER_0_12
*284 FILLER_0_122
*285 FILLER_0_125
*286 FILLER_0_128
*287 FILLER_0_131
*288 FILLER_0_134
*289 FILLER_0_137
*290 FILLER_0_141
*291 FILLER_0_144
*292 FILLER_0_147
*293 FILLER_0_15
*294 FILLER_0_150
*295 FILLER_0_153
*296 FILLER_0_156
*297 FILLER_0_159
*298 FILLER_0_162
*299 FILLER_0_165
*300 FILLER_0_169
*301 FILLER_0_18
*302 FILLER_0_21
*303 FILLER_0_24
*304 FILLER_0_27
*305 FILLER_0_29
*306 FILLER_0_3
*307 FILLER_0_32
*308 FILLER_0_35
*309 FILLER_0_41
*310 FILLER_0_44
*311 FILLER_0_48
*312 FILLER_0_51
*313 FILLER_0_54
*314 FILLER_0_57
*315 FILLER_0_6
*316 FILLER_0_60
*317 FILLER_0_63
*318 FILLER_0_66
*319 FILLER_0_69
*320 FILLER_0_72
*321 FILLER_0_75
*322 FILLER_0_78
*323 FILLER_0_81
*324 FILLER_0_85
*325 FILLER_0_88
*326 FILLER_0_9
*327 FILLER_0_91
*328 FILLER_0_94
*329 FILLER_0_97
*330 FILLER_10_102
*331 FILLER_10_12
*332 FILLER_10_132
*333 FILLER_10_135
*334 FILLER_10_138
*335 FILLER_10_15
*336 FILLER_10_164
*337 FILLER_10_169
*338 FILLER_10_26
*339 FILLER_10_29
*340 FILLER_10_3
*341 FILLER_10_32
*342 FILLER_10_35
*343 FILLER_10_38
*344 FILLER_10_41
*345 FILLER_10_51
*346 FILLER_10_54
*347 FILLER_10_57
*348 FILLER_10_6
*349 FILLER_10_83
*350 FILLER_10_89
*351 FILLER_10_9
*352 FILLER_10_99
*353 FILLER_11_108
*354 FILLER_11_111
*355 FILLER_11_122
*356 FILLER_11_125
*357 FILLER_11_128
*358 FILLER_11_131
*359 FILLER_11_134
*360 FILLER_11_150
*361 FILLER_11_159
*362 FILLER_11_162
*363 FILLER_11_165
*364 FILLER_11_169
*365 FILLER_11_3
*366 FILLER_11_31
*367 FILLER_11_34
*368 FILLER_11_37
*369 FILLER_11_40
*370 FILLER_11_43
*371 FILLER_11_46
*372 FILLER_11_49
*373 FILLER_11_52
*374 FILLER_11_55
*375 FILLER_11_57
*376 FILLER_11_60
*377 FILLER_11_63
*378 FILLER_11_66
*379 FILLER_11_69
*380 FILLER_11_72
*381 FILLER_11_75
*382 FILLER_11_78
*383 FILLER_11_81
*384 FILLER_11_84
*385 FILLER_11_87
*386 FILLER_11_90
*387 FILLER_11_93
*388 FILLER_11_96
*389 FILLER_11_99
*390 FILLER_12_103
*391 FILLER_12_106
*392 FILLER_12_109
*393 FILLER_12_112
*394 FILLER_12_115
*395 FILLER_12_126
*396 FILLER_12_129
*397 FILLER_12_132
*398 FILLER_12_135
*399 FILLER_12_138
*400 FILLER_12_150
*401 FILLER_12_153
*402 FILLER_12_165
*403 FILLER_12_168
*404 FILLER_12_171
*405 FILLER_12_27
*406 FILLER_12_3
*407 FILLER_12_43
*408 FILLER_12_46
*409 FILLER_12_49
*410 FILLER_12_81
*411 FILLER_12_92
*412 FILLER_13_133
*413 FILLER_13_136
*414 FILLER_13_146
*415 FILLER_13_169
*416 FILLER_13_30
*417 FILLER_13_52
*418 FILLER_13_55
*419 FILLER_13_83
*420 FILLER_13_86
*421 FILLER_14_104
*422 FILLER_14_107
*423 FILLER_14_11
*424 FILLER_14_110
*425 FILLER_14_130
*426 FILLER_14_133
*427 FILLER_14_136
*428 FILLER_14_139
*429 FILLER_14_14
*430 FILLER_14_161
*431 FILLER_14_164
*432 FILLER_14_17
*433 FILLER_14_24
*434 FILLER_14_27
*435 FILLER_14_29
*436 FILLER_14_32
*437 FILLER_14_35
*438 FILLER_14_46
*439 FILLER_14_49
*440 FILLER_14_52
*441 FILLER_14_55
*442 FILLER_14_58
*443 FILLER_14_6
*444 FILLER_14_73
*445 FILLER_14_83
*446 FILLER_15_113
*447 FILLER_15_116
*448 FILLER_15_119
*449 FILLER_15_12
*450 FILLER_15_122
*451 FILLER_15_125
*452 FILLER_15_128
*453 FILLER_15_131
*454 FILLER_15_134
*455 FILLER_15_149
*456 FILLER_15_15
*457 FILLER_15_167
*458 FILLER_15_169
*459 FILLER_15_18
*460 FILLER_15_39
*461 FILLER_15_51
*462 FILLER_15_54
*463 FILLER_15_57
*464 FILLER_15_6
*465 FILLER_15_9
*466 FILLER_15_92
*467 FILLER_15_95
*468 FILLER_16_101
*469 FILLER_16_104
*470 FILLER_16_107
*471 FILLER_16_110
*472 FILLER_16_12
*473 FILLER_16_131
*474 FILLER_16_134
*475 FILLER_16_137
*476 FILLER_16_15
*477 FILLER_16_150
*478 FILLER_16_18
*479 FILLER_16_21
*480 FILLER_16_24
*481 FILLER_16_27
*482 FILLER_16_29
*483 FILLER_16_40
*484 FILLER_16_55
*485 FILLER_16_58
*486 FILLER_16_6
*487 FILLER_16_63
*488 FILLER_16_76
*489 FILLER_16_79
*490 FILLER_16_82
*491 FILLER_16_9
*492 FILLER_16_98
*493 FILLER_17_122
*494 FILLER_17_125
*495 FILLER_17_163
*496 FILLER_17_169
*497 FILLER_17_3
*498 FILLER_17_39
*499 FILLER_17_47
*500 FILLER_17_50
*501 FILLER_17_53
*502 FILLER_17_6
*503 FILLER_17_66
*504 FILLER_17_69
*505 FILLER_17_9
*506 FILLER_18_102
*507 FILLER_18_105
*508 FILLER_18_108
*509 FILLER_18_111
*510 FILLER_18_114
*511 FILLER_18_117
*512 FILLER_18_12
*513 FILLER_18_128
*514 FILLER_18_131
*515 FILLER_18_134
*516 FILLER_18_137
*517 FILLER_18_15
*518 FILLER_18_170
*519 FILLER_18_18
*520 FILLER_18_21
*521 FILLER_18_24
*522 FILLER_18_27
*523 FILLER_18_29
*524 FILLER_18_3
*525 FILLER_18_32
*526 FILLER_18_35
*527 FILLER_18_38
*528 FILLER_18_41
*529 FILLER_18_44
*530 FILLER_18_6
*531 FILLER_18_66
*532 FILLER_18_69
*533 FILLER_18_72
*534 FILLER_18_75
*535 FILLER_18_78
*536 FILLER_18_81
*537 FILLER_18_9
*538 FILLER_19_107
*539 FILLER_19_110
*540 FILLER_19_113
*541 FILLER_19_12
*542 FILLER_19_148
*543 FILLER_19_15
*544 FILLER_19_151
*545 FILLER_19_154
*546 FILLER_19_157
*547 FILLER_19_160
*548 FILLER_19_163
*549 FILLER_19_166
*550 FILLER_19_169
*551 FILLER_19_3
*552 FILLER_19_6
*553 FILLER_19_66
*554 FILLER_19_77
*555 FILLER_19_80
*556 FILLER_19_87
*557 FILLER_19_9
*558 FILLER_19_97
*559 FILLER_1_113
*560 FILLER_1_116
*561 FILLER_1_119
*562 FILLER_1_12
*563 FILLER_1_129
*564 FILLER_1_132
*565 FILLER_1_135
*566 FILLER_1_138
*567 FILLER_1_141
*568 FILLER_1_144
*569 FILLER_1_147
*570 FILLER_1_15
*571 FILLER_1_150
*572 FILLER_1_153
*573 FILLER_1_156
*574 FILLER_1_159
*575 FILLER_1_162
*576 FILLER_1_165
*577 FILLER_1_169
*578 FILLER_1_18
*579 FILLER_1_21
*580 FILLER_1_24
*581 FILLER_1_27
*582 FILLER_1_3
*583 FILLER_1_30
*584 FILLER_1_33
*585 FILLER_1_6
*586 FILLER_1_66
*587 FILLER_1_69
*588 FILLER_1_72
*589 FILLER_1_75
*590 FILLER_1_78
*591 FILLER_1_88
*592 FILLER_1_9
*593 FILLER_1_91
*594 FILLER_20_105
*595 FILLER_20_12
*596 FILLER_20_128
*597 FILLER_20_131
*598 FILLER_20_134
*599 FILLER_20_137
*600 FILLER_20_150
*601 FILLER_20_158
*602 FILLER_20_169
*603 FILLER_20_29
*604 FILLER_20_3
*605 FILLER_20_40
*606 FILLER_20_43
*607 FILLER_20_46
*608 FILLER_20_49
*609 FILLER_20_52
*610 FILLER_20_55
*611 FILLER_20_58
*612 FILLER_20_6
*613 FILLER_20_81
*614 FILLER_20_9
*615 FILLER_21_100
*616 FILLER_21_103
*617 FILLER_21_109
*618 FILLER_21_122
*619 FILLER_21_125
*620 FILLER_21_128
*621 FILLER_21_131
*622 FILLER_21_134
*623 FILLER_21_137
*624 FILLER_21_146
*625 FILLER_21_169
*626 FILLER_21_29
*627 FILLER_21_3
*628 FILLER_21_32
*629 FILLER_21_35
*630 FILLER_21_38
*631 FILLER_21_46
*632 FILLER_21_49
*633 FILLER_21_52
*634 FILLER_21_55
*635 FILLER_21_6
*636 FILLER_21_66
*637 FILLER_21_69
*638 FILLER_21_72
*639 FILLER_21_94
*640 FILLER_21_97
*641 FILLER_22_102
*642 FILLER_22_12
*643 FILLER_22_132
*644 FILLER_22_135
*645 FILLER_22_138
*646 FILLER_22_146
*647 FILLER_22_149
*648 FILLER_22_15
*649 FILLER_22_152
*650 FILLER_22_167
*651 FILLER_22_170
*652 FILLER_22_18
*653 FILLER_22_21
*654 FILLER_22_24
*655 FILLER_22_27
*656 FILLER_22_3
*657 FILLER_22_39
*658 FILLER_22_42
*659 FILLER_22_6
*660 FILLER_22_70
*661 FILLER_22_73
*662 FILLER_22_76
*663 FILLER_22_79
*664 FILLER_22_82
*665 FILLER_22_9
*666 FILLER_23_100
*667 FILLER_23_103
*668 FILLER_23_106
*669 FILLER_23_109
*670 FILLER_23_113
*671 FILLER_23_116
*672 FILLER_23_12
*673 FILLER_23_138
*674 FILLER_23_15
*675 FILLER_23_169
*676 FILLER_23_18
*677 FILLER_23_3
*678 FILLER_23_55
*679 FILLER_23_6
*680 FILLER_23_61
*681 FILLER_23_64
*682 FILLER_23_67
*683 FILLER_23_70
*684 FILLER_23_73
*685 FILLER_23_85
*686 FILLER_23_88
*687 FILLER_23_9
*688 FILLER_23_91
*689 FILLER_23_94
*690 FILLER_23_97
*691 FILLER_24_102
*692 FILLER_24_105
*693 FILLER_24_114
*694 FILLER_24_12
*695 FILLER_24_122
*696 FILLER_24_125
*697 FILLER_24_128
*698 FILLER_24_131
*699 FILLER_24_134
*700 FILLER_24_137
*701 FILLER_24_141
*702 FILLER_24_144
*703 FILLER_24_147
*704 FILLER_24_15
*705 FILLER_24_166
*706 FILLER_24_18
*707 FILLER_24_21
*708 FILLER_24_24
*709 FILLER_24_27
*710 FILLER_24_29
*711 FILLER_24_3
*712 FILLER_24_32
*713 FILLER_24_43
*714 FILLER_24_46
*715 FILLER_24_49
*716 FILLER_24_6
*717 FILLER_24_64
*718 FILLER_24_76
*719 FILLER_24_79
*720 FILLER_24_82
*721 FILLER_24_9
*722 FILLER_24_94
*723 FILLER_25_101
*724 FILLER_25_104
*725 FILLER_25_107
*726 FILLER_25_110
*727 FILLER_25_113
*728 FILLER_25_116
*729 FILLER_25_119
*730 FILLER_25_12
*731 FILLER_25_122
*732 FILLER_25_134
*733 FILLER_25_137
*734 FILLER_25_140
*735 FILLER_25_15
*736 FILLER_25_162
*737 FILLER_25_165
*738 FILLER_25_169
*739 FILLER_25_18
*740 FILLER_25_21
*741 FILLER_25_3
*742 FILLER_25_45
*743 FILLER_25_48
*744 FILLER_25_51
*745 FILLER_25_54
*746 FILLER_25_6
*747 FILLER_25_77
*748 FILLER_25_9
*749 FILLER_25_98
*750 FILLER_26_101
*751 FILLER_26_12
*752 FILLER_26_141
*753 FILLER_26_144
*754 FILLER_26_147
*755 FILLER_26_15
*756 FILLER_26_150
*757 FILLER_26_153
*758 FILLER_26_156
*759 FILLER_26_159
*760 FILLER_26_162
*761 FILLER_26_165
*762 FILLER_26_168
*763 FILLER_26_171
*764 FILLER_26_18
*765 FILLER_26_21
*766 FILLER_26_24
*767 FILLER_26_27
*768 FILLER_26_33
*769 FILLER_26_36
*770 FILLER_26_39
*771 FILLER_26_42
*772 FILLER_26_45
*773 FILLER_26_48
*774 FILLER_26_51
*775 FILLER_26_54
*776 FILLER_26_6
*777 FILLER_26_76
*778 FILLER_26_79
*779 FILLER_26_85
*780 FILLER_26_9
*781 FILLER_26_95
*782 FILLER_26_98
*783 FILLER_27_12
*784 FILLER_27_133
*785 FILLER_27_136
*786 FILLER_27_139
*787 FILLER_27_142
*788 FILLER_27_145
*789 FILLER_27_148
*790 FILLER_27_15
*791 FILLER_27_151
*792 FILLER_27_154
*793 FILLER_27_157
*794 FILLER_27_160
*795 FILLER_27_163
*796 FILLER_27_166
*797 FILLER_27_169
*798 FILLER_27_18
*799 FILLER_27_21
*800 FILLER_27_24
*801 FILLER_27_27
*802 FILLER_27_3
*803 FILLER_27_30
*804 FILLER_27_33
*805 FILLER_27_36
*806 FILLER_27_39
*807 FILLER_27_42
*808 FILLER_27_45
*809 FILLER_27_48
*810 FILLER_27_51
*811 FILLER_27_54
*812 FILLER_27_57
*813 FILLER_27_6
*814 FILLER_27_60
*815 FILLER_27_9
*816 FILLER_28_100
*817 FILLER_28_103
*818 FILLER_28_106
*819 FILLER_28_109
*820 FILLER_28_113
*821 FILLER_28_119
*822 FILLER_28_12
*823 FILLER_28_126
*824 FILLER_28_129
*825 FILLER_28_132
*826 FILLER_28_135
*827 FILLER_28_138
*828 FILLER_28_141
*829 FILLER_28_144
*830 FILLER_28_147
*831 FILLER_28_15
*832 FILLER_28_150
*833 FILLER_28_153
*834 FILLER_28_156
*835 FILLER_28_159
*836 FILLER_28_162
*837 FILLER_28_165
*838 FILLER_28_169
*839 FILLER_28_18
*840 FILLER_28_21
*841 FILLER_28_24
*842 FILLER_28_27
*843 FILLER_28_29
*844 FILLER_28_3
*845 FILLER_28_32
*846 FILLER_28_35
*847 FILLER_28_38
*848 FILLER_28_41
*849 FILLER_28_44
*850 FILLER_28_47
*851 FILLER_28_50
*852 FILLER_28_53
*853 FILLER_28_57
*854 FILLER_28_6
*855 FILLER_28_60
*856 FILLER_28_63
*857 FILLER_28_66
*858 FILLER_28_69
*859 FILLER_28_72
*860 FILLER_28_75
*861 FILLER_28_78
*862 FILLER_28_81
*863 FILLER_28_85
*864 FILLER_28_88
*865 FILLER_28_9
*866 FILLER_28_91
*867 FILLER_28_94
*868 FILLER_28_97
*869 FILLER_2_111
*870 FILLER_2_114
*871 FILLER_2_12
*872 FILLER_2_135
*873 FILLER_2_138
*874 FILLER_2_15
*875 FILLER_2_150
*876 FILLER_2_153
*877 FILLER_2_156
*878 FILLER_2_159
*879 FILLER_2_162
*880 FILLER_2_165
*881 FILLER_2_168
*882 FILLER_2_18
*883 FILLER_2_21
*884 FILLER_2_24
*885 FILLER_2_27
*886 FILLER_2_29
*887 FILLER_2_3
*888 FILLER_2_32
*889 FILLER_2_6
*890 FILLER_2_9
*891 FILLER_3_109
*892 FILLER_3_113
*893 FILLER_3_116
*894 FILLER_3_12
*895 FILLER_3_128
*896 FILLER_3_131
*897 FILLER_3_134
*898 FILLER_3_15
*899 FILLER_3_156
*900 FILLER_3_159
*901 FILLER_3_162
*902 FILLER_3_165
*903 FILLER_3_169
*904 FILLER_3_3
*905 FILLER_3_47
*906 FILLER_3_50
*907 FILLER_3_53
*908 FILLER_3_6
*909 FILLER_3_66
*910 FILLER_3_69
*911 FILLER_3_72
*912 FILLER_3_86
*913 FILLER_3_9
*914 FILLER_4_105
*915 FILLER_4_108
*916 FILLER_4_111
*917 FILLER_4_132
*918 FILLER_4_135
*919 FILLER_4_138
*920 FILLER_4_141
*921 FILLER_4_144
*922 FILLER_4_159
*923 FILLER_4_162
*924 FILLER_4_165
*925 FILLER_4_168
*926 FILLER_4_27
*927 FILLER_4_3
*928 FILLER_4_33
*929 FILLER_4_36
*930 FILLER_4_44
*931 FILLER_4_47
*932 FILLER_4_50
*933 FILLER_4_58
*934 FILLER_4_6
*935 FILLER_4_61
*936 FILLER_4_66
*937 FILLER_4_69
*938 FILLER_4_72
*939 FILLER_4_83
*940 FILLER_4_85
*941 FILLER_4_88
*942 FILLER_5_108
*943 FILLER_5_111
*944 FILLER_5_113
*945 FILLER_5_12
*946 FILLER_5_121
*947 FILLER_5_124
*948 FILLER_5_127
*949 FILLER_5_130
*950 FILLER_5_133
*951 FILLER_5_136
*952 FILLER_5_15
*953 FILLER_5_156
*954 FILLER_5_159
*955 FILLER_5_162
*956 FILLER_5_165
*957 FILLER_5_169
*958 FILLER_5_25
*959 FILLER_5_28
*960 FILLER_5_3
*961 FILLER_5_31
*962 FILLER_5_34
*963 FILLER_5_65
*964 FILLER_5_87
*965 FILLER_5_9
*966 FILLER_5_90
*967 FILLER_6_110
*968 FILLER_6_113
*969 FILLER_6_116
*970 FILLER_6_119
*971 FILLER_6_129
*972 FILLER_6_132
*973 FILLER_6_135
*974 FILLER_6_138
*975 FILLER_6_170
*976 FILLER_6_24
*977 FILLER_6_27
*978 FILLER_6_3
*979 FILLER_6_36
*980 FILLER_6_50
*981 FILLER_6_53
*982 FILLER_6_56
*983 FILLER_6_59
*984 FILLER_6_67
*985 FILLER_6_70
*986 FILLER_6_73
*987 FILLER_6_76
*988 FILLER_6_79
*989 FILLER_6_82
*990 FILLER_6_85
*991 FILLER_6_88
*992 FILLER_7_104
*993 FILLER_7_107
*994 FILLER_7_110
*995 FILLER_7_113
*996 FILLER_7_12
*997 FILLER_7_134
*998 FILLER_7_137
*999 FILLER_7_140
*1000 FILLER_7_15
*1001 FILLER_7_18
*1002 FILLER_7_3
*1003 FILLER_7_48
*1004 FILLER_7_51
*1005 FILLER_7_54
*1006 FILLER_7_6
*1007 FILLER_7_66
*1008 FILLER_7_69
*1009 FILLER_7_9
*1010 FILLER_7_94
*1011 FILLER_8_101
*1012 FILLER_8_104
*1013 FILLER_8_107
*1014 FILLER_8_110
*1015 FILLER_8_113
*1016 FILLER_8_116
*1017 FILLER_8_119
*1018 FILLER_8_12
*1019 FILLER_8_122
*1020 FILLER_8_132
*1021 FILLER_8_135
*1022 FILLER_8_138
*1023 FILLER_8_141
*1024 FILLER_8_144
*1025 FILLER_8_147
*1026 FILLER_8_15
*1027 FILLER_8_164
*1028 FILLER_8_167
*1029 FILLER_8_170
*1030 FILLER_8_25
*1031 FILLER_8_29
*1032 FILLER_8_3
*1033 FILLER_8_32
*1034 FILLER_8_35
*1035 FILLER_8_46
*1036 FILLER_8_6
*1037 FILLER_8_68
*1038 FILLER_8_71
*1039 FILLER_8_74
*1040 FILLER_8_77
*1041 FILLER_8_80
*1042 FILLER_8_83
*1043 FILLER_8_9
*1044 FILLER_9_103
*1045 FILLER_9_106
*1046 FILLER_9_109
*1047 FILLER_9_113
*1048 FILLER_9_116
*1049 FILLER_9_137
*1050 FILLER_9_23
*1051 FILLER_9_26
*1052 FILLER_9_29
*1053 FILLER_9_51
*1054 FILLER_9_54
*1055 FILLER_9_57
*1056 FILLER_9_60
*1057 FILLER_9_63
*1058 FILLER_9_66
*1059 FILLER_9_81
*1060 PHY_EDGE_ROW_0_Left_29
*1061 PHY_EDGE_ROW_0_Right_0
*1062 PHY_EDGE_ROW_10_Left_39
*1063 PHY_EDGE_ROW_10_Right_10
*1064 PHY_EDGE_ROW_11_Left_40
*1065 PHY_EDGE_ROW_11_Right_11
*1066 PHY_EDGE_ROW_12_Left_41
*1067 PHY_EDGE_ROW_12_Right_12
*1068 PHY_EDGE_ROW_13_Left_42
*1069 PHY_EDGE_ROW_13_Right_13
*1070 PHY_EDGE_ROW_14_Left_43
*1071 PHY_EDGE_ROW_14_Right_14
*1072 PHY_EDGE_ROW_15_Left_44
*1073 PHY_EDGE_ROW_15_Right_15
*1074 PHY_EDGE_ROW_16_Left_45
*1075 PHY_EDGE_ROW_16_Right_16
*1076 PHY_EDGE_ROW_17_Left_46
*1077 PHY_EDGE_ROW_17_Right_17
*1078 PHY_EDGE_ROW_18_Left_47
*1079 PHY_EDGE_ROW_18_Right_18
*1080 PHY_EDGE_ROW_19_Left_48
*1081 PHY_EDGE_ROW_19_Right_19
*1082 PHY_EDGE_ROW_1_Left_30
*1083 PHY_EDGE_ROW_1_Right_1
*1084 PHY_EDGE_ROW_20_Left_49
*1085 PHY_EDGE_ROW_20_Right_20
*1086 PHY_EDGE_ROW_21_Left_50
*1087 PHY_EDGE_ROW_21_Right_21
*1088 PHY_EDGE_ROW_22_Left_51
*1089 PHY_EDGE_ROW_22_Right_22
*1090 PHY_EDGE_ROW_23_Left_52
*1091 PHY_EDGE_ROW_23_Right_23
*1092 PHY_EDGE_ROW_24_Left_53
*1093 PHY_EDGE_ROW_24_Right_24
*1094 PHY_EDGE_ROW_25_Left_54
*1095 PHY_EDGE_ROW_25_Right_25
*1096 PHY_EDGE_ROW_26_Left_55
*1097 PHY_EDGE_ROW_26_Right_26
*1098 PHY_EDGE_ROW_27_Left_56
*1099 PHY_EDGE_ROW_27_Right_27
*1100 PHY_EDGE_ROW_28_Left_57
*1101 PHY_EDGE_ROW_28_Right_28
*1102 PHY_EDGE_ROW_2_Left_31
*1103 PHY_EDGE_ROW_2_Right_2
*1104 PHY_EDGE_ROW_3_Left_32
*1105 PHY_EDGE_ROW_3_Right_3
*1106 PHY_EDGE_ROW_4_Left_33
*1107 PHY_EDGE_ROW_4_Right_4
*1108 PHY_EDGE_ROW_5_Left_34
*1109 PHY_EDGE_ROW_5_Right_5
*1110 PHY_EDGE_ROW_6_Left_35
*1111 PHY_EDGE_ROW_6_Right_6
*1112 PHY_EDGE_ROW_7_Left_36
*1113 PHY_EDGE_ROW_7_Right_7
*1114 PHY_EDGE_ROW_8_Left_37
*1115 PHY_EDGE_ROW_8_Right_8
*1116 PHY_EDGE_ROW_9_Left_38
*1117 PHY_EDGE_ROW_9_Right_9
*1118 TAP_TAPCELL_ROW_0_58
*1119 TAP_TAPCELL_ROW_0_59
*1120 TAP_TAPCELL_ROW_0_60
*1121 TAP_TAPCELL_ROW_0_61
*1122 TAP_TAPCELL_ROW_0_62
*1123 TAP_TAPCELL_ROW_0_63
*1124 TAP_TAPCELL_ROW_10_91
*1125 TAP_TAPCELL_ROW_10_92
*1126 TAP_TAPCELL_ROW_10_93
*1127 TAP_TAPCELL_ROW_11_94
*1128 TAP_TAPCELL_ROW_11_95
*1129 TAP_TAPCELL_ROW_11_96
*1130 TAP_TAPCELL_ROW_12_97
*1131 TAP_TAPCELL_ROW_12_98
*1132 TAP_TAPCELL_ROW_12_99
*1133 TAP_TAPCELL_ROW_13_100
*1134 TAP_TAPCELL_ROW_13_101
*1135 TAP_TAPCELL_ROW_13_102
*1136 TAP_TAPCELL_ROW_14_103
*1137 TAP_TAPCELL_ROW_14_104
*1138 TAP_TAPCELL_ROW_14_105
*1139 TAP_TAPCELL_ROW_15_106
*1140 TAP_TAPCELL_ROW_15_107
*1141 TAP_TAPCELL_ROW_15_108
*1142 TAP_TAPCELL_ROW_16_109
*1143 TAP_TAPCELL_ROW_16_110
*1144 TAP_TAPCELL_ROW_16_111
*1145 TAP_TAPCELL_ROW_17_112
*1146 TAP_TAPCELL_ROW_17_113
*1147 TAP_TAPCELL_ROW_17_114
*1148 TAP_TAPCELL_ROW_18_115
*1149 TAP_TAPCELL_ROW_18_116
*1150 TAP_TAPCELL_ROW_18_117
*1151 TAP_TAPCELL_ROW_19_118
*1152 TAP_TAPCELL_ROW_19_119
*1153 TAP_TAPCELL_ROW_19_120
*1154 TAP_TAPCELL_ROW_1_64
*1155 TAP_TAPCELL_ROW_1_65
*1156 TAP_TAPCELL_ROW_1_66
*1157 TAP_TAPCELL_ROW_20_121
*1158 TAP_TAPCELL_ROW_20_122
*1159 TAP_TAPCELL_ROW_20_123
*1160 TAP_TAPCELL_ROW_21_124
*1161 TAP_TAPCELL_ROW_21_125
*1162 TAP_TAPCELL_ROW_21_126
*1163 TAP_TAPCELL_ROW_22_127
*1164 TAP_TAPCELL_ROW_22_128
*1165 TAP_TAPCELL_ROW_22_129
*1166 TAP_TAPCELL_ROW_23_130
*1167 TAP_TAPCELL_ROW_23_131
*1168 TAP_TAPCELL_ROW_23_132
*1169 TAP_TAPCELL_ROW_24_133
*1170 TAP_TAPCELL_ROW_24_134
*1171 TAP_TAPCELL_ROW_24_135
*1172 TAP_TAPCELL_ROW_25_136
*1173 TAP_TAPCELL_ROW_25_137
*1174 TAP_TAPCELL_ROW_25_138
*1175 TAP_TAPCELL_ROW_26_139
*1176 TAP_TAPCELL_ROW_26_140
*1177 TAP_TAPCELL_ROW_26_141
*1178 TAP_TAPCELL_ROW_27_142
*1179 TAP_TAPCELL_ROW_27_143
*1180 TAP_TAPCELL_ROW_27_144
*1181 TAP_TAPCELL_ROW_28_145
*1182 TAP_TAPCELL_ROW_28_146
*1183 TAP_TAPCELL_ROW_28_147
*1184 TAP_TAPCELL_ROW_28_148
*1185 TAP_TAPCELL_ROW_28_149
*1186 TAP_TAPCELL_ROW_28_150
*1187 TAP_TAPCELL_ROW_2_67
*1188 TAP_TAPCELL_ROW_2_68
*1189 TAP_TAPCELL_ROW_2_69
*1190 TAP_TAPCELL_ROW_3_70
*1191 TAP_TAPCELL_ROW_3_71
*1192 TAP_TAPCELL_ROW_3_72
*1193 TAP_TAPCELL_ROW_4_73
*1194 TAP_TAPCELL_ROW_4_74
*1195 TAP_TAPCELL_ROW_4_75
*1196 TAP_TAPCELL_ROW_5_76
*1197 TAP_TAPCELL_ROW_5_77
*1198 TAP_TAPCELL_ROW_5_78
*1199 TAP_TAPCELL_ROW_6_79
*1200 TAP_TAPCELL_ROW_6_80
*1201 TAP_TAPCELL_ROW_6_81
*1202 TAP_TAPCELL_ROW_7_82
*1203 TAP_TAPCELL_ROW_7_83
*1204 TAP_TAPCELL_ROW_7_84
*1205 TAP_TAPCELL_ROW_8_85
*1206 TAP_TAPCELL_ROW_8_86
*1207 TAP_TAPCELL_ROW_8_87
*1208 TAP_TAPCELL_ROW_9_88
*1209 TAP_TAPCELL_ROW_9_89
*1210 TAP_TAPCELL_ROW_9_90
*1211 _141_
*1212 _142_
*1213 _143_
*1214 _144_
*1215 _145_
*1216 _146_
*1217 _147_
*1218 _148_
*1219 _149_
*1220 _150_
*1221 _151_
*1222 _152_
*1223 _153_
*1224 _154_
*1225 _155_
*1226 _156_
*1227 _157_
*1228 _158_
*1229 _159_
*1230 _160_
*1231 _161_
*1232 _162_
*1233 _163_
*1234 _164_
*1235 _165_
*1236 _166_
*1237 _167_
*1238 _168_
*1239 _169_
*1240 _170_
*1241 _171_
*1242 _172_
*1243 _173_
*1244 _174_
*1245 _175_
*1246 _176_
*1247 _177_
*1248 _178_
*1249 _179_
*1250 _180_
*1251 _181_
*1252 _182_
*1253 _183_
*1254 _184_
*1255 _185_
*1256 _186_
*1257 _187_
*1258 _188_
*1259 _189_
*1260 _190_
*1261 _191_
*1262 _192_
*1263 _193_
*1264 _194_
*1265 _195_
*1266 _196_
*1267 _197_
*1268 _198_
*1269 _199_
*1270 _200_
*1271 _201_
*1272 _202_
*1273 _203_
*1274 _204_
*1275 _205_
*1276 _206_
*1277 _207_
*1278 _208_
*1279 _209_
*1280 _210_
*1281 _211_
*1282 _212_
*1283 _213_
*1284 _214_
*1285 _215_
*1286 _216_
*1287 _217_
*1288 _218_
*1289 _219_
*1290 _220_
*1291 _221_
*1292 _222_
*1293 _223_
*1294 _224_
*1295 _225_
*1296 _226_
*1297 _227_
*1298 _228_
*1299 _229_
*1300 _230_
*1301 _231_
*1302 _232_
*1303 _233_
*1304 _234_
*1305 _235_
*1306 _236_
*1307 _237_
*1308 _238_
*1309 _239_
*1310 _240_
*1311 _241_
*1312 _242_
*1313 _243_
*1314 _244_
*1315 _245_
*1316 _246_
*1317 _247_
*1318 _248_
*1319 _249_
*1320 _250_
*1321 _251_
*1322 _252_
*1323 _253_
*1324 _254_
*1325 _255_
*1326 _256_
*1327 _257_
*1328 _258_
*1329 _259_
*1330 _260_
*1331 _261_
*1332 _262_
*1333 _263_
*1334 _264_
*1335 _265_
*1336 _266_
*1337 _267_
*1338 _268_
*1339 _269_
*1340 _270_
*1341 _271_
*1342 _272_
*1343 _273_
*1344 _274_
*1345 _275_
*1346 _276_
*1347 _277_
*1348 _278_
*1349 _279_
*1350 _280_
*1351 _281_
*1352 _282_
*1353 _283_
*1354 _284_
*1355 _285_
*1356 _286_
*1357 _287_
*1358 _288_
*1359 _289_
*1360 _290_
*1361 _291_
*1362 _292_
*1363 _293_
*1364 _294_
*1365 _295_
*1366 _296_
*1367 _297_
*1368 _298_
*1369 _299_
*1370 _300_
*1371 _301_
*1372 _302_
*1373 _303_
*1374 _304_
*1375 _305_
*1376 _306_
*1377 _307_
*1378 _308_
*1379 _309_
*1380 _310_
*1381 _311_
*1382 _312_
*1383 _313_
*1384 _314_
*1385 _315_
*1386 _316_
*1387 _317_
*1388 _318_
*1389 _319_
*1390 _320_
*1391 _321_
*1392 _322_
*1393 _323_
*1394 _324_
*1395 _325_
*1396 _326_
*1397 _327_
*1398 _328_
*1399 _329_
*1400 _330_
*1401 _331_
*1402 _332_
*1403 _333_
*1404 _334_
*1405 _335_
*1406 _336_
*1407 _337_
*1408 _338_
*1409 _339_
*1410 _340_
*1411 _341_
*1412 _342_
*1413 _343_
*1414 _344_
*1415 _345_
*1416 _346_
*1417 _347_
*1418 _348_
*1419 _349_
*1420 fanout20
*1421 fanout21
*1422 fanout22
*1423 fanout23
*1424 fanout24
*1425 fanout25
*1426 fanout26
*1427 fanout27
*1428 fanout28
*1429 fanout29
*1430 fanout30
*1431 fanout31
*1432 fanout32
*1433 fanout33
*1434 fanout34
*1435 fanout35
*1436 fanout36
*1437 fanout37
*1438 fanout38
*1439 fanout39
*1440 fanout40
*1441 fanout41
*1442 fanout42
*1443 fanout43
*1444 fanout44
*1445 fanout45
*1446 fanout46
*1447 fanout47
*1448 fanout48
*1449 fanout49
*1450 fanout50
*1451 fanout51
*1452 fanout52
*1453 fanout53
*1454 fanout54
*1455 fanout55
*1456 fanout56
*1457 input1
*1458 input10
*1459 input11
*1460 input2
*1461 input3
*1462 input4
*1463 input5
*1464 input6
*1465 input7
*1466 input8
*1467 input9
*1468 max_cap16
*1469 max_cap17
*1470 max_cap19
*1471 output12
*1472 output13
*1473 output14
*1474 output15
*1475 wire18

*PORTS
addr[0] I
addr[1] I
addr[2] I
addr[3] I
clk I
nrst I
rdata[0] O
rdata[1] O
rdata[2] O
rdata[3] O
wdata[0] I
wdata[1] I
wdata[2] I
wdata[3] I
we I

*D_NET *1 0.000521576
*CONN
*P addr[0] I
*I *1457:A I *D sky130_fd_sc_hd__buf_1
*CAP
1 addr[0] 0.000232346
2 *1457:A 0.000232346
3 *1457:A *1455:A 2.49459e-05
4 *1457:A *1460:A 0
5 *1457:A *1462:A 3.19385e-05
*RES
1 addr[0] *1457:A 18.73 
*END

*D_NET *2 0.000817544
*CONN
*P addr[1] I
*I *1460:A I *D sky130_fd_sc_hd__buf_1
*CAP
1 addr[1] 0.000306289
2 *1460:A 0.000306289
3 *1460:A *1455:A 5.90443e-06
4 *1460:A *1461:A 3.19385e-05
5 *1460:A *1462:A 2.15768e-05
6 *1460:A *188:14 0.000139739
7 *1460:A *192:12 5.80706e-06
8 *1457:A *1460:A 0
*RES
1 addr[1] *1460:A 19.9443 
*END

*D_NET *3 0.000790934
*CONN
*P addr[2] I
*I *1461:A I *D sky130_fd_sc_hd__clkbuf_1
*CAP
1 addr[2] 0.000376472
2 *1461:A 0.000376472
3 *1461:A *1381:CLK 6.05161e-06
4 *1461:A *188:14 0
5 *1461:A *188:16 0
6 *1460:A *1461:A 3.19385e-05
*RES
1 addr[2] *1461:A 22.6053 
*END

*D_NET *4 0.000669654
*CONN
*P addr[3] I
*I *1462:A I *D sky130_fd_sc_hd__buf_1
*CAP
1 addr[3] 0.000308069
2 *1462:A 0.000308069
3 *1462:A *1455:A 0
4 *1457:A *1462:A 3.19385e-05
5 *1460:A *1462:A 2.15768e-05
*RES
1 addr[3] *1462:A 21.391 
*END

*D_NET *5 0.000578318
*CONN
*P clk I
*I *1463:A I *D sky130_fd_sc_hd__clkbuf_1
*CAP
1 clk 0.000289159
2 *1463:A 0.000289159
*RES
1 clk *1463:A 20.4803 
*END

*D_NET *6 0.000462741
*CONN
*P nrst I
*I *1464:A I *D sky130_fd_sc_hd__clkbuf_1
*CAP
1 nrst 0.000183646
2 *1464:A 0.000183646
3 *1464:A *1465:A 9.54485e-05
*RES
1 nrst *1464:A 18.1949 
*END

*D_NET *7 0.000653058
*CONN
*P rdata[0] O
*I *1471:X O *D sky130_fd_sc_hd__buf_2
*CAP
1 rdata[0] 0.000313694
2 *1471:X 0.000313694
3 rdata[0] *1471:A 2.56694e-05
*RES
1 *1471:X rdata[0] 19.4813 
*END

*D_NET *8 0.00128303
*CONN
*P rdata[1] O
*I *1472:X O *D sky130_fd_sc_hd__buf_2
*CAP
1 rdata[1] 0.000521072
2 *1472:X 0.000521072
3 rdata[1] *1255:A2 0.000144959
4 rdata[1] *1472:A 9.5923e-05
*RES
1 *1472:X rdata[1] 21.7861 
*END

*D_NET *9 0.00101131
*CONN
*P rdata[2] O
*I *1473:X O *D sky130_fd_sc_hd__buf_2
*CAP
1 rdata[2] 0.000505653
2 *1473:X 0.000505653
3 rdata[2] rdata[3] 0
*RES
1 *1473:X rdata[2] 23.8714 
*END

*D_NET *10 0.00104796
*CONN
*P rdata[3] O
*I *1474:X O *D sky130_fd_sc_hd__buf_2
*CAP
1 rdata[3] 0.000523979
2 *1474:X 0.000523979
3 rdata[2] rdata[3] 0
*RES
1 *1474:X rdata[3] 23.4607 
*END

*D_NET *13 0.000702787
*CONN
*P wdata[0] I
*I *1465:A I *D sky130_fd_sc_hd__buf_1
*CAP
1 wdata[0] 0.000259347
2 *1465:A 0.000259347
3 *1465:A *1434:A 8.86454e-05
4 *1464:A *1465:A 9.54485e-05
*RES
1 wdata[0] *1465:A 20.0163 
*END

*D_NET *14 0.000489922
*CONN
*P wdata[1] I
*I *1466:A I *D sky130_fd_sc_hd__buf_1
*CAP
1 wdata[1] 0.000197237
2 *1466:A 0.000197237
3 *1466:A *1338:A1 0
4 *1466:A *1459:A 9.54485e-05
*RES
1 wdata[1] *1466:A 18.4985 
*END

*D_NET *15 0.000950185
*CONN
*P wdata[2] I
*I *1467:A I *D sky130_fd_sc_hd__buf_1
*CAP
1 wdata[2] 0.000475093
2 *1467:A 0.000475093
3 *1467:A *1458:A 0
*RES
1 wdata[2] *1467:A 22.6571 
*END

*D_NET *16 0.000822147
*CONN
*P wdata[3] I
*I *1458:A I *D sky130_fd_sc_hd__buf_1
*CAP
1 wdata[3] 0.000411074
2 *1458:A 0.000411074
3 *1467:A *1458:A 0
*RES
1 wdata[3] *1458:A 21.9607 
*END

*D_NET *17 0.000709367
*CONN
*P we I
*I *1459:A I *D sky130_fd_sc_hd__clkbuf_1
*CAP
1 we 0.000306959
2 *1459:A 0.000306959
3 *1459:A *186:38 0
4 *1466:A *1459:A 9.54485e-05
*RES
1 we *1459:A 20.3199 
*END

*D_NET *18 0.00081446
*CONN
*I *1352:D I *D sky130_fd_sc_hd__dfrtp_1
*I *1213:X O *D sky130_fd_sc_hd__mux2_1
*CAP
1 *1352:D 0.000303113
2 *1213:X 0.000303113
3 *1352:D *1247:B2 0.000104974
4 *1352:D *110:10 0.00010326
*RES
1 *1213:X *1352:D 31.9393 
*END

*D_NET *19 0.00125729
*CONN
*I *1353:D I *D sky130_fd_sc_hd__dfrtp_1
*I *1214:X O *D sky130_fd_sc_hd__mux2_1
*CAP
1 *1353:D 0.000473542
2 *1214:X 0.000473542
3 *1353:D *86:37 0.000273269
4 *1353:D *110:10 0
5 *1353:D *175:64 1.77347e-05
6 *1353:D *175:68 9.33978e-07
7 *1353:D *206:28 1.82657e-05
8 *1353:D *206:34 0
*RES
1 *1214:X *1353:D 33.9929 
*END

*D_NET *20 0.000469979
*CONN
*I *1354:D I *D sky130_fd_sc_hd__dfrtp_1
*I *1215:X O *D sky130_fd_sc_hd__mux2_1
*CAP
1 *1354:D 0.000136203
2 *1215:X 0.000136203
3 *1354:D *1344:A0 2.1527e-05
4 *1354:D *1422:A 9.71197e-05
5 *1354:D *106:47 6.86764e-05
6 *1354:D *111:26 1.02504e-05
7 *1354:D *207:51 0
*RES
1 *1215:X *1354:D 30.1893 
*END

*D_NET *21 0.000501437
*CONN
*I *1355:D I *D sky130_fd_sc_hd__dfrtp_1
*I *1216:X O *D sky130_fd_sc_hd__mux2_1
*CAP
1 *1355:D 0.000172448
2 *1216:X 0.000172448
3 *1355:D *1216:S 5.10822e-05
4 *1355:D *1355:CLK 6.05161e-06
5 *1355:D *1427:A 2.89114e-05
6 *1355:D *87:17 3.47797e-05
7 *1355:D *189:8 3.57163e-05
*RES
1 *1216:X *1355:D 30.8321 
*END

*D_NET *22 0.000378074
*CONN
*I *1356:D I *D sky130_fd_sc_hd__dfrtp_1
*I *1244:X O *D sky130_fd_sc_hd__a22o_1
*CAP
1 *1356:D 0.00011812
2 *1244:X 0.00011812
3 *1356:D *1244:B2 0.000141835
*RES
1 *1244:X *1356:D 20.283 
*END

*D_NET *23 0.00104304
*CONN
*I *1357:D I *D sky130_fd_sc_hd__dfrtp_1
*I *1255:X O *D sky130_fd_sc_hd__a22o_1
*CAP
1 *1357:D 0.000368472
2 *1255:X 0.000368472
3 *1357:D *1255:A2 0.000153047
4 *1357:D *186:66 0.000153047
*RES
1 *1255:X *1357:D 34.1893 
*END

*D_NET *24 0.000888589
*CONN
*I *1358:D I *D sky130_fd_sc_hd__dfrtp_1
*I *1266:X O *D sky130_fd_sc_hd__a22o_1
*CAP
1 *1358:D 0.000417755
2 *1266:X 0.000417755
3 *1358:D *1223:A1 1.57885e-05
4 *1358:D *1376:D 0
5 *1358:D *255:16 3.72901e-05
*RES
1 *1266:X *1358:D 33.0643 
*END

*D_NET *25 0.000471707
*CONN
*I *1359:D I *D sky130_fd_sc_hd__dfrtp_1
*I *1276:X O *D sky130_fd_sc_hd__mux2_1
*CAP
1 *1359:D 0.000195488
2 *1276:X 0.000195488
3 *1359:D *1266:A2 0
4 *1359:D *1276:A1 8.07313e-05
*RES
1 *1276:X *1359:D 30.6 
*END

*D_NET *26 0.00043065
*CONN
*I *1360:D I *D sky130_fd_sc_hd__dfrtp_1
*I *1278:X O *D sky130_fd_sc_hd__mux2_1
*CAP
1 *1360:D 0.000192453
2 *1278:X 0.000192453
3 *1360:D *1281:S 0
4 *1360:D *185:25 4.57445e-05
*RES
1 *1278:X *1360:D 31.0107 
*END

*D_NET *27 0.000273302
*CONN
*I *1361:D I *D sky130_fd_sc_hd__dfrtp_1
*I *1279:X O *D sky130_fd_sc_hd__mux2_1
*CAP
1 *1361:D 0.00010311
2 *1279:X 0.00010311
3 *1361:D *1254:A1 1.02504e-05
4 *1361:D *1451:A 0
5 *1361:D *204:164 9.25014e-06
6 *1361:D *212:33 4.75812e-05
*RES
1 *1279:X *1361:D 29.475 
*END

*D_NET *28 0.000903242
*CONN
*I *1362:D I *D sky130_fd_sc_hd__dfrtp_1
*I *1280:X O *D sky130_fd_sc_hd__mux2_1
*CAP
1 *1362:D 0.000300875
2 *1280:X 0.000300875
3 *1362:D *1280:A1 0
4 *1362:D *142:10 6.74911e-05
5 *1362:D *185:52 0.000130741
6 *1362:D *186:76 0.00010326
*RES
1 *1280:X *1362:D 33.8857 
*END

*D_NET *29 0.00118035
*CONN
*I *1363:D I *D sky130_fd_sc_hd__dfrtp_1
*I *1281:X O *D sky130_fd_sc_hd__mux2_1
*CAP
1 *1363:D 0.000429181
2 *1281:X 0.000429181
3 *1363:D *1281:A1 0.000232399
4 *1363:D *1281:S 5.70551e-05
5 *1363:D *185:52 0
6 *1363:D *195:52 3.2534e-05
*RES
1 *1281:X *1363:D 33.5821 
*END

*D_NET *30 0.00047923
*CONN
*I *1364:D I *D sky130_fd_sc_hd__dfrtp_1
*I *1283:X O *D sky130_fd_sc_hd__mux2_1
*CAP
1 *1364:D 0.000103199
2 *1283:X 0.000103199
3 *1364:D *1282:B 0.000130751
4 *1364:D *1285:S 3.88139e-05
5 *1364:D *1356:CLK 0
6 *1364:D *175:193 0.000103267
*RES
1 *1283:X *1364:D 30.2964 
*END

*D_NET *31 0.000658549
*CONN
*I *1365:D I *D sky130_fd_sc_hd__dfrtp_1
*I *1284:X O *D sky130_fd_sc_hd__mux2_1
*CAP
1 *1365:D 0.000162238
2 *1284:X 0.000162238
3 *1365:D *1319:A0 7.77652e-05
4 *1365:D *1365:RESET_B 0.000128154
5 *1365:D *212:33 0.000128154
*RES
1 *1284:X *1365:D 31.4214 
*END

*D_NET *32 0.000826169
*CONN
*I *1366:D I *D sky130_fd_sc_hd__dfrtp_1
*I *1285:X O *D sky130_fd_sc_hd__mux2_1
*CAP
1 *1366:D 0.000224516
2 *1285:X 0.000224516
3 *1366:D *1285:A1 7.6644e-05
4 *1366:D *1290:A0 0.000186662
5 *1366:D *169:33 5.33882e-05
6 *1366:D *171:135 4.72917e-05
7 *1366:D *205:35 1.31516e-05
*RES
1 *1285:X *1366:D 31.5286 
*END

*D_NET *33 0.000448978
*CONN
*I *1367:D I *D sky130_fd_sc_hd__dfrtp_1
*I *1286:X O *D sky130_fd_sc_hd__mux2_1
*CAP
1 *1367:D 0.000176367
2 *1286:X 0.000176367
3 *1367:D *1321:S 0
4 *1367:D *102:29 2.89114e-05
5 *1367:D *190:10 4.1331e-06
6 *1367:D *190:16 5.95088e-05
7 *1367:D *207:117 3.69047e-06
*RES
1 *1286:X *1367:D 30.8143 
*END

*D_NET *34 0.000521335
*CONN
*I *1368:D I *D sky130_fd_sc_hd__dfrtp_1
*I *1288:X O *D sky130_fd_sc_hd__mux2_1
*CAP
1 *1368:D 0.000173719
2 *1288:X 0.000173719
3 *1368:D *1368:RESET_B 4.57445e-05
4 *1368:D *148:32 0.000128154
*RES
1 *1288:X *1368:D 31.0107 
*END

*D_NET *35 0.00127398
*CONN
*I *1369:D I *D sky130_fd_sc_hd__dfrtp_1
*I *1289:X O *D sky130_fd_sc_hd__mux2_1
*CAP
1 *1369:D 0.000465029
2 *1289:X 0.000465029
3 *1369:D *1289:A0 5.52302e-05
4 *1369:D *1305:A0 0.00015827
5 *1369:D *1369:CLK 3.69047e-06
6 *1369:D *182:63 2.8266e-06
7 *1369:D *191:10 0
8 *1369:D *191:43 0.000123902
*RES
1 *1289:X *1369:D 34.2429 
*END

*D_NET *36 0.000817784
*CONN
*I *1370:D I *D sky130_fd_sc_hd__dfrtp_1
*I *1290:X O *D sky130_fd_sc_hd__mux2_1
*CAP
1 *1370:D 0.000345583
2 *1290:X 0.000345583
3 *1370:D *1257:C1 1.00073e-05
4 *1370:D *1290:S 9.9322e-05
5 *1370:D *1368:CLK 0
6 *1370:D *172:50 1.72894e-05
7 *1370:D *196:77 0
*RES
1 *1290:X *1370:D 32.475 
*END

*D_NET *37 0.000637702
*CONN
*I *1371:D I *D sky130_fd_sc_hd__dfrtp_1
*I *1291:X O *D sky130_fd_sc_hd__mux2_1
*CAP
1 *1371:D 0.000318851
2 *1291:X 0.000318851
3 *1371:D *1371:RESET_B 0
4 *1371:D *196:16 0
*RES
1 *1291:X *1371:D 31.8321 
*END

*D_NET *38 0.000883128
*CONN
*I *1372:D I *D sky130_fd_sc_hd__dfrtp_1
*I *1293:X O *D sky130_fd_sc_hd__mux2_1
*CAP
1 *1372:D 0.000370039
2 *1293:X 0.000370039
3 *1372:D *1372:CLK 3.79467e-05
4 *1372:D *1456:A 0.000105104
5 *1372:D *173:63 0
*RES
1 *1293:X *1372:D 32.7607 
*END

*D_NET *39 0.00105943
*CONN
*I *1373:D I *D sky130_fd_sc_hd__dfrtp_1
*I *1294:X O *D sky130_fd_sc_hd__mux2_1
*CAP
1 *1373:D 0.000374663
2 *1294:X 0.000374663
3 *1373:D *1294:S 0
4 *1373:D *1373:CLK 0.000151061
5 *1373:D *1373:RESET_B 1.9132e-05
6 *1373:D *173:63 0.000139913
*RES
1 *1294:X *1373:D 26.1357 
*END

*D_NET *40 0.0010285
*CONN
*I *1374:D I *D sky130_fd_sc_hd__dfrtp_1
*I *1295:X O *D sky130_fd_sc_hd__mux2_1
*CAP
1 *1374:D 0.000390139
2 *1295:X 0.000390139
3 *1374:D *1295:S 7.15962e-05
4 *1374:D *95:42 0
5 *1374:D *182:19 4.1331e-06
6 *1374:D *182:29 3.15645e-05
7 *1374:D *182:33 0.000140933
*RES
1 *1295:X *1374:D 33.1714 
*END

*D_NET *41 0.0006043
*CONN
*I *1375:D I *D sky130_fd_sc_hd__dfrtp_1
*I *1296:X O *D sky130_fd_sc_hd__mux2_1
*CAP
1 *1375:D 0.000115096
2 *1296:X 0.000115096
3 *1375:D *95:42 4.25716e-05
4 *1375:D *99:55 8.3722e-05
5 *1375:D *101:24 0.000122091
6 *1375:D *202:8 0.000125724
*RES
1 *1296:X *1375:D 31.4214 
*END

*D_NET *42 0.000927426
*CONN
*I *1376:D I *D sky130_fd_sc_hd__dfrtp_1
*I *1298:X O *D sky130_fd_sc_hd__mux2_1
*CAP
1 *1376:D 0.000239217
2 *1298:X 0.000239217
3 *1376:D *1301:A0 7.77652e-05
4 *1376:D *1376:CLK 0.000268682
5 *1376:D *195:12 0.000102545
6 *1358:D *1376:D 0
*RES
1 *1298:X *1376:D 33.8857 
*END

*D_NET *43 0.000605425
*CONN
*I *1377:D I *D sky130_fd_sc_hd__dfrtp_1
*I *1299:X O *D sky130_fd_sc_hd__mux2_1
*CAP
1 *1377:D 0.000177042
2 *1299:X 0.000177042
3 *1377:D *1299:A0 9.46929e-05
4 *1377:D *150:18 5.33882e-05
5 *1377:D *191:90 0.00010326
*RES
1 *1299:X *1377:D 30.7071 
*END

*D_NET *44 0.000266582
*CONN
*I *1378:D I *D sky130_fd_sc_hd__dfrtp_1
*I *1300:X O *D sky130_fd_sc_hd__mux2_1
*CAP
1 *1378:D 2.83166e-05
2 *1300:X 2.83166e-05
3 *1378:D *176:28 0.000104974
4 *1378:D *208:54 0.000104974
*RES
1 *1300:X *1378:D 28.9393 
*END

*D_NET *45 0.000507075
*CONN
*I *1379:D I *D sky130_fd_sc_hd__dfrtp_1
*I *1301:X O *D sky130_fd_sc_hd__mux2_1
*CAP
1 *1379:D 0.000253538
2 *1301:X 0.000253538
*RES
1 *1301:X *1379:D 31.0107 
*END

*D_NET *46 0.00041447
*CONN
*I *1380:D I *D sky130_fd_sc_hd__dfrtp_1
*I *1303:X O *D sky130_fd_sc_hd__mux2_1
*CAP
1 *1380:D 0.000166168
2 *1303:X 0.000166168
3 *1380:D *1236:C 3.006e-05
4 *1380:D *1445:A 5.20751e-05
*RES
1 *1303:X *1380:D 29.8857 
*END

*D_NET *47 0.0010396
*CONN
*I *1381:D I *D sky130_fd_sc_hd__dfrtp_1
*I *1304:X O *D sky130_fd_sc_hd__mux2_1
*CAP
1 *1381:D 0.000342306
2 *1304:X 0.000342306
3 *1381:D *1238:B 0.000144941
4 *1381:D *1435:A 0.000128154
5 *1381:D *1455:A 4.48206e-05
6 *1381:D *209:6 4.0342e-06
7 *1381:D *209:25 3.30417e-05
*RES
1 *1304:X *1381:D 33.0643 
*END

*D_NET *48 0.000751262
*CONN
*I *1382:D I *D sky130_fd_sc_hd__dfrtp_1
*I *1305:X O *D sky130_fd_sc_hd__mux2_1
*CAP
1 *1382:D 0.000309301
2 *1305:X 0.000309301
3 *1382:D *196:16 5.76121e-05
4 *1382:D *196:26 7.50473e-05
*RES
1 *1305:X *1382:D 32.2429 
*END

*D_NET *49 0.00103997
*CONN
*I *1383:D I *D sky130_fd_sc_hd__dfrtp_1
*I *1306:X O *D sky130_fd_sc_hd__mux2_1
*CAP
1 *1383:D 0.000424663
2 *1306:X 0.000424663
3 *1383:D *1383:RESET_B 0.000178516
4 *1383:D *262:6 1.21258e-05
*RES
1 *1306:X *1383:D 26.1357 
*END

*D_NET *50 0.00109365
*CONN
*I *1384:D I *D sky130_fd_sc_hd__dfrtp_1
*I *1308:X O *D sky130_fd_sc_hd__mux2_1
*CAP
1 *1384:D 0.00038096
2 *1308:X 0.00038096
3 *1384:D *1384:RESET_B 2.29097e-05
4 *1384:D *176:28 0
5 *1384:D *182:47 9.61553e-05
6 *1384:D *182:57 0.00020661
7 *1384:D *248:8 6.05161e-06
*RES
1 *1308:X *1384:D 26.5464 
*END

*D_NET *51 0.00101231
*CONN
*I *1385:D I *D sky130_fd_sc_hd__dfrtp_1
*I *1309:X O *D sky130_fd_sc_hd__mux2_1
*CAP
1 *1385:D 0.00030933
2 *1309:X 0.00030933
3 *1385:D *1292:A 3.5707e-05
4 *1385:D *173:101 0.000357945
*RES
1 *1309:X *1385:D 32.35 
*END

*D_NET *52 0.00111825
*CONN
*I *1386:D I *D sky130_fd_sc_hd__dfrtp_1
*I *1310:X O *D sky130_fd_sc_hd__mux2_1
*CAP
1 *1386:D 0.000418213
2 *1310:X 0.000418213
3 *1386:D *1267:B1 0
4 *1386:D *1306:S 0.000100639
5 *1386:D *172:35 0.000181189
*RES
1 *1310:X *1386:D 33.5821 
*END

*D_NET *53 0.000532
*CONN
*I *1387:D I *D sky130_fd_sc_hd__dfrtp_1
*I *1311:X O *D sky130_fd_sc_hd__mux2_1
*CAP
1 *1387:D 0.000171703
2 *1311:X 0.000171703
3 *1387:D *146:44 0.00014285
4 *1387:D *183:61 4.57445e-05
5 *1387:D *250:10 0
*RES
1 *1311:X *1387:D 30.6 
*END

*D_NET *54 0.0010952
*CONN
*I *1388:D I *D sky130_fd_sc_hd__dfrtp_1
*I *1313:X O *D sky130_fd_sc_hd__mux2_1
*CAP
1 *1388:D 0.00037798
2 *1313:X 0.00037798
3 *1388:D *1282:A 0.000137983
4 *1388:D *171:125 3.47737e-05
5 *1388:D *194:32 0.000166485
6 *1388:D *205:19 0
*RES
1 *1313:X *1388:D 33.1714 
*END

*D_NET *55 0.00129411
*CONN
*I *1389:D I *D sky130_fd_sc_hd__dfrtp_1
*I *1314:X O *D sky130_fd_sc_hd__mux2_1
*CAP
1 *1389:D 0.000353442
2 *1314:X 0.000353442
3 *1389:D *1270:A1 1.02504e-05
4 *1389:D *1316:A1 0.000127439
5 *1389:D *112:12 0
6 *1389:D *121:14 0.000449539
*RES
1 *1314:X *1389:D 33.475 
*END

*D_NET *56 0.00120348
*CONN
*I *1390:D I *D sky130_fd_sc_hd__dfrtp_1
*I *1315:X O *D sky130_fd_sc_hd__mux2_1
*CAP
1 *1390:D 0.000264247
2 *1315:X 0.000264247
3 *1390:D *1315:A0 0.000221543
4 *1390:D *1315:A1 3.17774e-05
5 *1390:D *1316:S 3.34366e-05
6 *1390:D *88:27 0.000120406
7 *1390:D *142:10 0.000113557
8 *1390:D *172:67 5.52238e-05
9 *1390:D *205:35 9.90431e-05
*RES
1 *1315:X *1390:D 43.0643 
*END

*D_NET *57 0.00108068
*CONN
*I *1391:D I *D sky130_fd_sc_hd__dfrtp_1
*I *1316:X O *D sky130_fd_sc_hd__mux2_1
*CAP
1 *1391:D 0.0003741
2 *1316:X 0.0003741
3 *1391:D *1316:A0 0.000122101
4 *1391:D *1320:A0 2.56601e-05
5 *1391:D *1320:S 0
6 *1391:D *169:12 0.000184719
*RES
1 *1316:X *1391:D 34.4571 
*END

*D_NET *58 0.000583511
*CONN
*I *1392:D I *D sky130_fd_sc_hd__dfrtp_1
*I *1318:X O *D sky130_fd_sc_hd__mux2_1
*CAP
1 *1392:D 9.05664e-05
2 *1318:X 9.05664e-05
3 *1392:D *1252:A2 0.000100823
4 *1392:D *1409:CLK 0.000100823
5 *1392:D *190:49 6.57032e-05
6 *1392:D *271:8 0.000135028
*RES
1 *1318:X *1392:D 30.2964 
*END

*D_NET *59 0.000413677
*CONN
*I *1393:D I *D sky130_fd_sc_hd__dfrtp_1
*I *1319:X O *D sky130_fd_sc_hd__mux2_1
*CAP
1 *1393:D 7.75385e-05
2 *1319:X 7.75385e-05
3 *1393:D *1252:D1 0.000100831
4 *1393:D *1253:C 0.000102545
5 *1393:D *1319:A0 5.52238e-05
*RES
1 *1319:X *1393:D 29.475 
*END

*D_NET *60 0.000484909
*CONN
*I *1394:D I *D sky130_fd_sc_hd__dfrtp_1
*I *1320:X O *D sky130_fd_sc_hd__mux2_1
*CAP
1 *1394:D 0.000195482
2 *1320:X 0.000195482
3 *1394:D *1320:A1 4.51495e-05
4 *1394:D *194:87 4.87953e-05
*RES
1 *1320:X *1394:D 21.2071 
*END

*D_NET *61 0.000963986
*CONN
*I *1395:D I *D sky130_fd_sc_hd__dfrtp_1
*I *1321:X O *D sky130_fd_sc_hd__mux2_1
*CAP
1 *1395:D 0.000285034
2 *1321:X 0.000285034
3 *1395:D *1274:D1 0.000266473
4 *1395:D *1367:RESET_B 0
5 *1395:D *207:78 9.25014e-06
6 *1395:D *207:104 0.000118195
*RES
1 *1321:X *1395:D 31.8321 
*END

*D_NET *62 0.000585864
*CONN
*I *1396:D I *D sky130_fd_sc_hd__dfrtp_1
*I *1323:X O *D sky130_fd_sc_hd__mux2_1
*CAP
1 *1396:D 0.000292932
2 *1323:X 0.000292932
3 *1396:D *153:12 0
*RES
1 *1323:X *1396:D 31.4214 
*END

*D_NET *63 0.000949693
*CONN
*I *1397:D I *D sky130_fd_sc_hd__dfrtp_1
*I *1324:X O *D sky130_fd_sc_hd__mux2_1
*CAP
1 *1397:D 0.000451974
2 *1324:X 0.000451974
3 *1397:D *1435:A 4.57445e-05
4 *1397:D *188:20 0
*RES
1 *1324:X *1397:D 33.475 
*END

*D_NET *64 0.000642048
*CONN
*I *1398:D I *D sky130_fd_sc_hd__dfrtp_1
*I *1325:X O *D sky130_fd_sc_hd__mux2_1
*CAP
1 *1398:D 0.000321024
2 *1325:X 0.000321024
3 *1398:D *1325:A0 0
*RES
1 *1325:X *1398:D 32.9571 
*END

*D_NET *65 0.000624081
*CONN
*I *1399:D I *D sky130_fd_sc_hd__dfrtp_1
*I *1326:X O *D sky130_fd_sc_hd__mux2_1
*CAP
1 *1399:D 0.000188239
2 *1326:X 0.000188239
3 *1399:D *1399:RESET_B 9.93955e-05
4 *1399:D *188:47 2.1768e-05
5 *1399:D *214:37 0.000126439
*RES
1 *1326:X *1399:D 31.5464 
*END

*D_NET *66 0.000436044
*CONN
*I *1400:D I *D sky130_fd_sc_hd__dfrtp_1
*I *1328:X O *D sky130_fd_sc_hd__mux2_1
*CAP
1 *1400:D 0.000145137
2 *1328:X 0.000145137
3 *1400:D *1328:A0 0
4 *1400:D *1402:CLK 4.48113e-05
5 *1400:D *1426:A 0.00010096
*RES
1 *1328:X *1400:D 30.1893 
*END

*D_NET *67 0.000638166
*CONN
*I *1401:D I *D sky130_fd_sc_hd__dfrtp_1
*I *1329:X O *D sky130_fd_sc_hd__mux2_1
*CAP
1 *1401:D 0.000144187
2 *1329:X 0.000144187
3 *1401:D *1252:A1 3.34366e-05
4 *1401:D *1329:A1 7.6644e-05
5 *1401:D *104:44 0.000100831
6 *1401:D *156:16 0.000138881
*RES
1 *1329:X *1401:D 30.2964 
*END

*D_NET *68 0.00112495
*CONN
*I *1402:D I *D sky130_fd_sc_hd__dfrtp_1
*I *1330:X O *D sky130_fd_sc_hd__mux2_1
*CAP
1 *1402:D 0.00040875
2 *1330:X 0.00040875
3 *1402:D *1330:A1 0.000232399
4 *1402:D *1330:S 7.50473e-05
*RES
1 *1330:X *1402:D 33.5821 
*END

*D_NET *69 0.000531469
*CONN
*I *1403:D I *D sky130_fd_sc_hd__dfrtp_1
*I *1331:X O *D sky130_fd_sc_hd__mux2_1
*CAP
1 *1403:D 0.000214462
2 *1331:X 0.000214462
3 *1403:D *1271:A1 0
4 *1403:D *1271:B2 0.000102545
*RES
1 *1331:X *1403:D 30.7071 
*END

*D_NET *70 0.00238779
*CONN
*I *1404:D I *D sky130_fd_sc_hd__dfrtp_1
*I *1333:X O *D sky130_fd_sc_hd__mux2_1
*CAP
1 *1404:D 0.00071727
2 *1333:X 0.00071727
3 *1404:D *1323:A0 0.000484524
4 *1404:D *1323:A1 0
5 *1404:D *1404:CLK 0.000289386
6 *1404:D *1412:D 0.000100831
7 *1404:D *187:44 7.85137e-05
*RES
1 *1333:X *1404:D 39.1357 
*END

*D_NET *71 0.000795471
*CONN
*I *1405:D I *D sky130_fd_sc_hd__dfrtp_1
*I *1334:X O *D sky130_fd_sc_hd__mux2_1
*CAP
1 *1405:D 0.00025963
2 *1334:X 0.00025963
3 *1405:D *107:26 0
4 *1405:D *175:70 0
5 *1405:D *207:18 0.000276211
*RES
1 *1334:X *1405:D 31.5286 
*END

*D_NET *72 0.000567272
*CONN
*I *1406:D I *D sky130_fd_sc_hd__dfrtp_1
*I *1335:X O *D sky130_fd_sc_hd__mux2_1
*CAP
1 *1406:D 0.000119949
2 *1335:X 0.000119949
3 *1406:D *1407:CLK 0
4 *1406:D *189:27 0
5 *1406:D *189:53 7.15846e-05
6 *1406:D *207:45 0.000105163
7 *1406:D *207:51 0.000150625
*RES
1 *1335:X *1406:D 31.3143 
*END

*D_NET *73 0.000570787
*CONN
*I *1407:D I *D sky130_fd_sc_hd__dfrtp_1
*I *1336:X O *D sky130_fd_sc_hd__mux2_1
*CAP
1 *1407:D 0.000285394
2 *1336:X 0.000285394
3 *1407:D *1330:A0 0
4 *1407:D *1336:A0 0
*RES
1 *1336:X *1407:D 31.4214 
*END

*D_NET *74 0.00117861
*CONN
*I *1408:D I *D sky130_fd_sc_hd__dfrtp_1
*I *1338:X O *D sky130_fd_sc_hd__mux2_1
*CAP
1 *1408:D 0.000380132
2 *1338:X 0.000380132
3 *1408:D *1338:S 0.000226088
4 *1408:D *175:29 0.000125724
5 *1408:D *206:115 6.65302e-05
*RES
1 *1338:X *1408:D 33.475 
*END

*D_NET *75 0.000552148
*CONN
*I *1409:D I *D sky130_fd_sc_hd__dfrtp_1
*I *1339:X O *D sky130_fd_sc_hd__mux2_1
*CAP
1 *1409:D 0.00014257
2 *1339:X 0.00014257
3 *1409:D *1339:A1 4.57445e-05
4 *1409:D *180:25 9.3111e-05
5 *1409:D *212:33 0.000128154
*RES
1 *1339:X *1409:D 31.0107 
*END

*D_NET *76 0.00131626
*CONN
*I *1410:D I *D sky130_fd_sc_hd__dfrtp_1
*I *1340:X O *D sky130_fd_sc_hd__mux2_1
*CAP
1 *1410:D 0.00037491
2 *1340:X 0.00037491
3 *1410:D *1241:C1 0.000440711
4 *1410:D *156:29 0.000125724
5 *1410:D *189:101 0
*RES
1 *1340:X *1410:D 33.475 
*END

*D_NET *77 0.000891623
*CONN
*I *1411:D I *D sky130_fd_sc_hd__dfrtp_1
*I *1341:X O *D sky130_fd_sc_hd__mux2_1
*CAP
1 *1411:D 0.000274842
2 *1341:X 0.000274842
3 *1411:D *1274:C1 0
4 *1411:D *1411:RESET_B 6.05161e-06
5 *1411:D *103:35 0.000128651
6 *1411:D *118:12 5.52238e-05
7 *1411:D *171:125 0.000152013
*RES
1 *1341:X *1411:D 33.0643 
*END

*D_NET *78 0.00110512
*CONN
*I *1412:D I *D sky130_fd_sc_hd__dfrtp_1
*I *1343:X O *D sky130_fd_sc_hd__mux2_1
*CAP
1 *1412:D 0.000390748
2 *1343:X 0.000390748
3 *1412:D *1323:A1 0
4 *1412:D *1404:RESET_B 0.000222789
5 *1404:D *1412:D 0.000100831
*RES
1 *1343:X *1412:D 33.1714 
*END

*D_NET *79 0.000473248
*CONN
*I *1413:D I *D sky130_fd_sc_hd__dfrtp_1
*I *1344:X O *D sky130_fd_sc_hd__mux2_1
*CAP
1 *1413:D 0.000149733
2 *1344:X 0.000149733
3 *1413:D *1269:B2 0
4 *1413:D *110:59 0.000102197
5 *1413:D *111:26 7.15846e-05
6 *1413:D *187:78 0
*RES
1 *1344:X *1413:D 31.0107 
*END

*D_NET *80 0.000294768
*CONN
*I *1414:D I *D sky130_fd_sc_hd__dfrtp_1
*I *1345:X O *D sky130_fd_sc_hd__mux2_1
*CAP
1 *1414:D 0.000106234
2 *1345:X 0.000106234
3 *1414:D *1345:A1 0
4 *1414:D *1407:CLK 5.33882e-05
5 *1414:D *177:12 2.89114e-05
*RES
1 *1345:X *1414:D 29.475 
*END

*D_NET *81 0.000730507
*CONN
*I *1415:D I *D sky130_fd_sc_hd__dfrtp_1
*I *1346:X O *D sky130_fd_sc_hd__mux2_1
*CAP
1 *1415:D 0.000261375
2 *1346:X 0.000261375
3 *1415:D *187:78 0.000127439
4 *1415:D *207:18 8.03176e-05
*RES
1 *1346:X *1415:D 31.8321 
*END

*D_NET *82 0.000458831
*CONN
*I *1416:D I *D sky130_fd_sc_hd__dfrtp_1
*I *1348:X O *D sky130_fd_sc_hd__mux2_1
*CAP
1 *1416:D 0.000135031
2 *1348:X 0.000135031
3 *1416:D *1261:A2 5.47047e-05
4 *1416:D *1348:A0 2.38651e-06
5 *1416:D *1416:CLK 2.84109e-05
6 *1416:D *153:42 0.000103267
*RES
1 *1348:X *1416:D 30.0107 
*END

*D_NET *83 0.000971943
*CONN
*I *1417:D I *D sky130_fd_sc_hd__dfrtp_1
*I *1349:X O *D sky130_fd_sc_hd__mux2_1
*CAP
1 *1417:D 0.000483905
2 *1349:X 0.000483905
3 *1417:D *1435:A 0
4 *1417:D *188:20 4.1331e-06
*RES
1 *1349:X *1417:D 33.475 
*END

*D_NET *84 0.000866879
*CONN
*I *1418:D I *D sky130_fd_sc_hd__dfrtp_1
*I *1350:X O *D sky130_fd_sc_hd__mux2_1
*CAP
1 *1418:D 0.00035773
2 *1350:X 0.00035773
3 *1418:D *1418:CLK 3.79467e-05
4 *1418:D *1435:A 0.000113472
*RES
1 *1350:X *1418:D 32.7607 
*END

*D_NET *85 0.0010936
*CONN
*I *1419:D I *D sky130_fd_sc_hd__dfrtp_1
*I *1351:X O *D sky130_fd_sc_hd__mux2_1
*CAP
1 *1419:D 0.000346615
2 *1351:X 0.000346615
3 *1419:D *109:41 2.59355e-05
4 *1419:D *173:22 0.000374434
*RES
1 *1351:X *1419:D 26.1357 
*END

*D_NET *86 0.00985188
*CONN
*I *1273:A2 I *D sky130_fd_sc_hd__a221o_1
*I *1212:B I *D sky130_fd_sc_hd__nand2_1
*I *1262:A2 I *D sky130_fd_sc_hd__a221o_1
*I *1248:A2 I *D sky130_fd_sc_hd__a22o_1
*I *1227:A2 I *D sky130_fd_sc_hd__a221o_1
*I *1211:X O *D sky130_fd_sc_hd__and4_1
*CAP
1 *1273:A2 0.000621142
2 *1212:B 1.69531e-05
3 *1262:A2 0.000352799
4 *1248:A2 0
5 *1227:A2 0.000487597
6 *1211:X 0.000181956
7 *86:37 0.00080652
8 *86:27 0.000666384
9 *86:25 0.00100156
10 *86:6 0.00085426
11 *1212:B *1212:A 5.33005e-05
12 *1212:B *1213:S 5.33005e-05
13 *1227:A2 *1224:B_N 3.34783e-05
14 *1227:A2 *1227:B2 7.66879e-05
15 *1227:A2 *1445:A 7.2754e-05
16 *1227:A2 *95:18 1.33343e-05
17 *1227:A2 *95:33 8.56654e-05
18 *1227:A2 *197:105 4.46186e-06
19 *1227:A2 *198:12 5.31667e-05
20 *1227:A2 *202:16 1.98839e-05
21 *1227:A2 *209:98 4.04353e-05
22 *1227:A2 *210:29 8.07951e-05
23 *1227:A2 *210:52 0.000135028
24 *1262:A2 *1215:A1 0.000148196
25 *1262:A2 *1262:A1 0.000245168
26 *1262:A2 *1262:B1 0
27 *1262:A2 *1355:RESET_B 4.35048e-05
28 *1262:A2 *118:12 5.49489e-05
29 *1262:A2 *132:26 1.41029e-05
30 *1262:A2 *171:81 0.000349523
31 *1262:A2 *179:56 1.78353e-05
32 *1262:A2 *206:24 0.00014051
33 *1273:A2 *1273:B1 0.000202048
34 *1273:A2 *1321:A1 3.99817e-05
35 *1273:A2 *201:92 0.000613026
36 *86:6 *210:52 0.000256992
37 *86:25 *1269:B2 0.000272135
38 *86:25 *160:29 0
39 *86:27 *1269:B2 0.000328394
40 *86:27 *160:29 0
41 *86:37 *1248:A1 0.000274575
42 *86:37 *1248:B2 0.000356028
43 *86:37 *1269:B2 0.000245335
44 *86:37 *160:29 0
45 *86:37 *206:24 0.000153398
46 *86:37 *206:28 0.000111451
47 *1353:D *86:37 0.000273269
*RES
1 *1211:X *86:6 11.8893 
2 *86:6 *1227:A2 26.0411 
3 *86:6 *86:25 8.26786 
4 *86:25 *86:27 4.375 
5 *86:27 *86:37 16.1429 
6 *86:37 *1248:A2 9.3 
7 *86:37 *1262:A2 27.0946 
8 *86:27 *1212:B 14.3357 
9 *86:25 *1273:A2 25.483 
*END

*D_NET *87 0.00370546
*CONN
*I *1216:S I *D sky130_fd_sc_hd__mux2_1
*I *1214:S I *D sky130_fd_sc_hd__mux2_1
*I *1215:S I *D sky130_fd_sc_hd__mux2_1
*I *1213:S I *D sky130_fd_sc_hd__mux2_1
*I *1212:Y O *D sky130_fd_sc_hd__nand2_1
*CAP
1 *1216:S 0.00018043
2 *1214:S 0
3 *1215:S 0.000334038
4 *1213:S 0.00011825
5 *1212:Y 0
6 *87:19 0.000410608
7 *87:17 0.000665423
8 *87:4 0.000526674
9 *1213:S *1212:A 1.98839e-05
10 *1215:S *1214:A0 1.3142e-05
11 *1215:S *1215:A0 4.87854e-05
12 *1215:S *1410:RESET_B 1.39841e-05
13 *1215:S *1422:A 0.000403302
14 *1215:S *106:35 1.02504e-05
15 *1215:S *106:47 0
16 *1215:S *189:21 0
17 *1215:S *240:12 7.6644e-05
18 *1216:S *1216:A0 0.00010096
19 *1216:S *1427:A 3.34366e-05
20 *1216:S *106:35 0.000275809
21 *1216:S *140:12 0.000122091
22 *1216:S *160:29 0
23 *1216:S *189:8 0
24 *1216:S *189:21 0
25 *87:17 *1212:A 1.15281e-05
26 *87:17 *1355:CLK 7.77751e-05
27 *87:19 *106:35 0.000123288
28 *87:19 *189:21 0
29 *1212:B *1213:S 5.33005e-05
30 *1355:D *1216:S 5.10822e-05
31 *1355:D *87:17 3.47797e-05
*RES
1 *1212:Y *87:4 9.3 
2 *87:4 *1213:S 11.3893 
3 *87:4 *87:17 9.55357 
4 *87:17 *87:19 1.64286 
5 *87:19 *1215:S 21.1393 
6 *87:19 *1214:S 13.8 
7 *87:17 *1216:S 19.4429 
*END

*D_NET *88 0.00981463
*CONN
*I *1219:A2 I *D sky130_fd_sc_hd__a22o_1
*I *1250:A2 I *D sky130_fd_sc_hd__a221o_1
*I *1270:A2 I *D sky130_fd_sc_hd__a221o_1
*I *1312:B I *D sky130_fd_sc_hd__nand2_1
*I *1259:A2 I *D sky130_fd_sc_hd__a221o_1
*I *1217:X O *D sky130_fd_sc_hd__and4b_2
*CAP
1 *1219:A2 0.000245357
2 *1250:A2 0.000431397
3 *1270:A2 7.0384e-05
4 *1312:B 0
5 *1259:A2 0
6 *1217:X 0.000388782
7 *88:42 0.000904866
8 *88:36 0.000663417
9 *88:27 0.000308076
10 *88:12 0.000681883
11 *1219:A2 *1285:S 0.000167211
12 *1219:A2 *1364:CLK 0.000140933
13 *1219:A2 *142:10 0.00037576
14 *1219:A2 *169:33 0.000657846
15 *1219:A2 *171:135 9.41642e-05
16 *1219:A2 *207:132 0.000383288
17 *1250:A2 *1250:A1 2.04026e-05
18 *1250:A2 *1250:B2 7.94772e-05
19 *1250:A2 *1253:A 0
20 *1250:A2 *1254:A2 0.000278092
21 *1270:A2 *1241:D1 4.04353e-05
22 *1270:A2 *1270:A1 0.000227522
23 *1270:A2 *171:125 7.6644e-05
24 *1270:A2 *207:132 3.80808e-05
25 *88:12 *1220:B 9.25014e-06
26 *88:12 *1254:A2 0
27 *88:12 *1259:A1 3.33238e-05
28 *88:12 *1394:RESET_B 0.000105696
29 *88:12 *92:10 3.75052e-05
30 *88:12 *92:27 0.000178673
31 *88:12 *92:36 5.80706e-06
32 *88:12 *97:35 0
33 *88:12 *132:26 0.000102503
34 *88:12 *172:67 1.05729e-05
35 *88:12 *184:89 0.000168203
36 *88:27 *1259:A1 0.000163294
37 *88:27 *1312:A 0
38 *88:27 *1316:S 5.52302e-05
39 *88:27 *151:8 9.90367e-05
40 *88:27 *172:67 0.000179294
41 *88:27 *205:35 0.000362329
42 *88:36 *151:8 4.08637e-05
43 *88:36 *205:35 5.33005e-05
44 *88:42 *1254:A2 0.000135028
45 *88:42 *142:10 0.000841009
46 *88:42 *207:132 0.000839287
47 *1390:D *88:27 0.000120406
*RES
1 *1217:X *88:12 28.1661 
2 *88:12 *1259:A2 9.3 
3 *88:12 *88:27 9.09821 
4 *88:27 *1312:B 9.3 
5 *88:27 *88:36 5.03571 
6 *88:36 *88:42 16.6071 
7 *88:42 *1270:A2 20.9875 
8 *88:42 *1250:A2 15.5366 
9 *88:36 *1219:A2 25.0679 
*END

*D_NET *89 0.00639624
*CONN
*I *1270:B1 I *D sky130_fd_sc_hd__a221o_1
*I *1249:A2 I *D sky130_fd_sc_hd__a22o_1
*I *1470:A I *D sky130_fd_sc_hd__clkbuf_2
*I *1218:Y O *D sky130_fd_sc_hd__nor4b_1
*CAP
1 *1270:B1 7.17503e-05
2 *1249:A2 0.000856957
3 *1470:A 0
4 *1218:Y 0.000541134
5 *89:25 0.00141985
6 *89:12 0.00103228
7 *1249:A2 *1249:B1 5.91094e-05
8 *1249:A2 *1252:C1 0.00031119
9 *1249:A2 *1270:B2 0.000128875
10 *1249:A2 *1274:D1 3.14048e-05
11 *1249:A2 *1286:A1 0.00017039
12 *1249:A2 *1317:A 5.33005e-05
13 *1249:A2 *1317:B 5.52302e-05
14 *1249:A2 *1321:S 0
15 *1249:A2 *1367:RESET_B 1.65169e-05
16 *1249:A2 *102:37 0.000132957
17 *1249:A2 *112:12 0.00022459
18 *1249:A2 *142:10 0.000404775
19 *1249:A2 *152:8 1.39726e-05
20 *1270:B1 *1241:D1 1.58163e-05
21 *1270:B1 *1270:B2 9.40095e-05
22 *1270:B1 *142:10 0.000101545
23 *89:12 *1217:A_N 1.97695e-05
24 *89:12 *1218:C 3.18676e-05
25 *89:12 *1232:B 2.63579e-05
26 *89:12 *169:12 0.00010096
27 *89:12 *198:38 0.000114596
28 *89:12 *198:45 0.000160519
29 *89:12 *199:53 4.27338e-05
30 *89:25 *152:29 6.28241e-05
31 *89:25 *169:12 0.00010096
*RES
1 *1218:Y *89:12 17.6929 
2 *89:12 *1470:A 9.3 
3 *89:12 *89:25 11.2321 
4 *89:25 *1249:A2 31.9607 
5 *89:25 *1270:B1 15.675 
*END

*D_NET *90 0.000664156
*CONN
*I *1242:A I *D sky130_fd_sc_hd__or3_1
*I *1219:X O *D sky130_fd_sc_hd__a22o_1
*CAP
1 *1242:A 0.000133009
2 *1219:X 0.000133009
3 *1242:A *112:12 0.000128154
4 *1242:A *169:33 0.00014183
5 *1242:A *204:20 0.000128154
*RES
1 *1219:X *1242:A 30.6 
*END

*D_NET *91 0.00183173
*CONN
*I *1232:C I *D sky130_fd_sc_hd__and3_2
*I *1231:B I *D sky130_fd_sc_hd__and3b_2
*I *1221:C I *D sky130_fd_sc_hd__and3b_2
*I *1220:Y O *D sky130_fd_sc_hd__nor2_1
*CAP
1 *1232:C 0.000109446
2 *1231:B 6.97031e-05
3 *1221:C 0.000170822
4 *1220:Y 0
5 *91:14 0.000451359
6 *91:4 0.00032028
7 *1221:C *1221:A_N 5.7298e-05
8 *1221:C *1252:B1 0
9 *1221:C *199:80 1.90936e-05
10 *1221:C *201:122 2.22043e-05
11 *1231:B *1258:B1 0.000147742
12 *1231:B *102:10 3.51442e-05
13 *1231:B *199:49 8.07879e-05
14 *1231:B *199:80 0.000108511
15 *1232:C *1221:A_N 1.24368e-05
16 *1232:C *1226:B 7.83587e-05
17 *1232:C *1270:C1 2.95726e-05
18 *1232:C *198:49 3.69697e-05
19 *91:14 *1221:A_N 5.33005e-05
20 *91:14 *1252:B1 0
21 *91:14 *1258:B1 9.60337e-06
22 *91:14 *198:49 1.90936e-05
*RES
1 *1220:Y *91:4 9.3 
2 *91:4 *91:14 8.9857 
3 *91:14 *1221:C 18.2538 
4 *91:14 *1231:B 19.6118 
5 *91:4 *1232:C 20.2821 
*END

*D_NET *92 0.0100412
*CONN
*I *1223:A2 I *D sky130_fd_sc_hd__a22o_1
*I *1297:B I *D sky130_fd_sc_hd__nand2_2
*I *1268:A2 I *D sky130_fd_sc_hd__a221o_1
*I *1259:B1 I *D sky130_fd_sc_hd__a221o_1
*I *1251:A2 I *D sky130_fd_sc_hd__a221o_1
*I *1221:X O *D sky130_fd_sc_hd__and3b_2
*CAP
1 *1223:A2 0.000189964
2 *1297:B 0
3 *1268:A2 0.000206424
4 *1259:B1 0
5 *1251:A2 0.000512211
6 *1221:X 0.000159065
7 *92:42 0.000480316
8 *92:36 0.00102043
9 *92:27 0.000885951
10 *92:10 0.00100065
11 *1223:A2 *1223:A1 0
12 *1223:A2 *1242:B 5.52238e-05
13 *1223:A2 *1257:B1 0
14 *1223:A2 *1266:B1 0
15 *1223:A2 *204:80 0.00014285
16 *1251:A2 *1251:B2 0
17 *1251:A2 *1437:A 0.000137983
18 *1251:A2 *1438:A 0.000566855
19 *1251:A2 *1449:A 6.74039e-05
20 *1251:A2 *1468:A 0.000128496
21 *1251:A2 *121:14 0.000165768
22 *1251:A2 *160:29 9.90431e-05
23 *1251:A2 *166:10 9.68931e-05
24 *1251:A2 *167:31 0.000139907
25 *1251:A2 *208:8 2.59355e-05
26 *1268:A2 *1268:A1 5.53689e-05
27 *1268:A2 *1275:B1 0.000396892
28 *1268:A2 *1288:S 9.71197e-05
29 *1268:A2 *1290:S 1.76135e-05
30 *1268:A2 *146:19 7.50505e-05
31 *1268:A2 *146:44 2.74267e-05
32 *1268:A2 *168:25 1.38323e-05
33 *1268:A2 *196:77 0.000193118
34 *1268:A2 *208:62 0.000257003
35 *92:10 *1217:C 0.000150618
36 *92:10 *1220:B 2.26327e-05
37 *92:10 *1226:C 0.000150618
38 *92:10 *1258:B1 8.0089e-05
39 *92:10 *1270:C1 9.58181e-05
40 *92:10 *101:24 9.41642e-05
41 *92:27 *1258:B1 0.000106158
42 *92:27 *1258:B2 0.000198698
43 *92:27 *1259:C1 7.8327e-05
44 *92:27 *1295:A0 0
45 *92:27 *1394:RESET_B 5.89612e-05
46 *92:36 *1257:B1 0
47 *92:36 *1264:A 0.000100831
48 *92:36 *1264:B 0
49 *92:36 *1266:B1 0
50 *92:36 *97:35 0
51 *92:36 *132:26 2.34423e-05
52 *92:36 *172:50 0
53 *92:36 *172:52 0
54 *92:36 *184:89 0
55 *92:36 *257:14 3.92854e-05
56 *92:42 *1431:A 0.000390994
57 *92:42 *186:76 0.000532305
58 *92:42 *204:80 0.000437762
59 *92:42 *204:93 4.36963e-05
60 *88:12 *92:10 3.75052e-05
61 *88:12 *92:27 0.000178673
62 *88:12 *92:36 5.80706e-06
*RES
1 *1221:X *92:10 18.8179 
2 *92:10 *1251:A2 27.0054 
3 *92:10 *92:27 8.55357 
4 *92:27 *1259:B1 13.8 
5 *92:27 *92:36 9.53571 
6 *92:36 *92:42 13.6786 
7 *92:42 *1268:A2 25.8446 
8 *92:42 *1297:B 9.3 
9 *92:36 *1223:A2 17.7107 
*END

*D_NET *93 0.00611133
*CONN
*I *1475:A I *D sky130_fd_sc_hd__buf_1
*I *1267:A2 I *D sky130_fd_sc_hd__a22o_1
*I *1245:A2 I *D sky130_fd_sc_hd__a22o_1
*I *1222:Y O *D sky130_fd_sc_hd__nor4b_1
*CAP
1 *1475:A 0.000517971
2 *1267:A2 6.91656e-05
3 *1245:A2 3.62648e-05
4 *1222:Y 0.00022163
5 *93:29 0.00120813
6 *93:14 0.000878888
7 *1245:A2 *1293:A0 0.000139632
8 *1245:A2 *173:101 7.27282e-05
9 *1475:A *1268:C1 5.71472e-05
10 *1475:A *1368:CLK 0.000149554
11 *1475:A *1431:A 0.000620822
12 *1475:A *100:50 0
13 *1475:A *183:61 1.00073e-05
14 *93:14 *1222:A 5.52238e-05
15 *93:14 *1222:B 2.06112e-05
16 *93:14 *1222:C 5.33433e-05
17 *93:14 *1222:D_N 2.69286e-05
18 *93:14 *1292:A 0
19 *93:14 *1292:B 4.81734e-05
20 *93:14 *149:24 7.82058e-05
21 *93:29 *1230:B2 0
22 *93:29 *1292:A 0.00071967
23 *93:29 *1293:A0 0.000258915
24 *93:29 *1307:A 1.94879e-05
25 *93:29 *150:14 0.00015617
26 *93:29 *150:18 0
27 *93:29 *173:101 0.000249002
28 *93:29 *204:105 0.000443665
*RES
1 *1222:Y *93:14 22.8357 
2 *93:14 *1245:A2 10.6571 
3 *93:14 *93:29 26.5893 
4 *93:29 *1267:A2 10.2643 
5 *93:29 *1475:A 28.5857 
*END

*D_NET *94 0.00397752
*CONN
*I *1242:B I *D sky130_fd_sc_hd__or3_1
*I *1223:X O *D sky130_fd_sc_hd__a22o_1
*CAP
1 *1242:B 0.0013614
2 *1223:X 0.0013614
3 *1242:B *1243:A2 7.78179e-05
4 *1242:B *1275:B1 3.77138e-05
5 *1242:B *1275:B2 0.000318101
6 *1242:B *97:52 9.62347e-05
7 *1242:B *185:52 7.6644e-05
8 *1242:B *186:76 0.000401758
9 *1242:B *195:54 0
10 *1242:B *195:56 0
11 *1242:B *204:63 5.52302e-05
12 *1242:B *204:80 0.000136001
13 *1242:B *207:132 0
14 *1223:A2 *1242:B 5.52238e-05
*RES
1 *1223:X *1242:B 48.725 
*END

*D_NET *95 0.00784192
*CONN
*I *1256:A2 I *D sky130_fd_sc_hd__a22o_1
*I *1267:B1 I *D sky130_fd_sc_hd__a22o_1
*I *1302:B I *D sky130_fd_sc_hd__nand2_2
*I *1227:B1 I *D sky130_fd_sc_hd__a221o_1
*I *1247:A2 I *D sky130_fd_sc_hd__a221o_1
*I *1224:X O *D sky130_fd_sc_hd__and4bb_2
*CAP
1 *1256:A2 0.000160372
2 *1267:B1 0.000183235
3 *1302:B 0.000231022
4 *1227:B1 0
5 *1247:A2 3.55818e-05
6 *1224:X 0.000238966
7 *95:46 0.00116595
8 *95:42 0.00176722
9 *95:33 0.00104178
10 *95:18 0.00046118
11 *1247:A2 *1247:A1 1.97695e-05
12 *1247:A2 *198:12 0
13 *1256:A2 *1257:C1 5.33334e-05
14 *1256:A2 *1368:CLK 5.70022e-05
15 *1256:A2 *100:42 0.000109393
16 *1267:B1 *1306:S 0
17 *1267:B1 *1386:CLK 9.61993e-05
18 *1267:B1 *204:105 0.000198033
19 *1302:B *1302:A 1.00332e-05
20 *1302:B *1306:S 2.11419e-05
21 *95:18 *1224:D 0.000136958
22 *95:18 *1247:A1 9.60875e-05
23 *95:18 *1247:C1 7.50601e-05
24 *95:18 *116:14 0.000148196
25 *95:18 *197:95 9.41642e-05
26 *95:18 *209:98 0.000136958
27 *95:33 *1227:A1 0.00019271
28 *95:33 *198:12 7.43578e-06
29 *95:33 *202:16 0
30 *95:33 *209:98 3.17163e-05
31 *95:42 *1251:A1 0.000345152
32 *95:42 *1368:CLK 3.43988e-06
33 *95:42 *1445:A 8.0089e-05
34 *95:42 *100:8 6.26466e-05
35 *95:42 *100:27 4.8476e-05
36 *95:42 *100:42 0.000121793
37 *95:42 *182:19 0
38 *95:42 *182:29 0
39 *95:42 *182:92 0
40 *95:42 *191:105 0.000199209
41 *95:42 *202:8 0
42 *95:42 *202:10 0
43 *95:42 *209:98 3.07555e-05
44 *95:42 *210:29 0
45 *95:42 *256:12 3.92854e-05
46 *95:46 *204:103 0
47 *1227:A2 *95:18 1.33343e-05
48 *1227:A2 *95:33 8.56654e-05
49 *1374:D *95:42 0
50 *1375:D *95:42 4.25716e-05
51 *1386:D *1267:B1 0
*RES
1 *1224:X *95:18 24.3357 
2 *95:18 *1247:A2 10.242 
3 *95:18 *95:33 8.82143 
4 *95:33 *1227:B1 13.8 
5 *95:33 *95:42 19.7054 
6 *95:42 *95:46 4.9704 
7 *95:46 *1302:B 17.9662 
8 *95:46 *1267:B1 22.0404 
9 *95:42 *1256:A2 17.6661 
*END

*D_NET *96 0.000706675
*CONN
*I *1469:A I *D sky130_fd_sc_hd__buf_1
*I *1227:C1 I *D sky130_fd_sc_hd__a221o_1
*I *1225:Y O *D sky130_fd_sc_hd__nor4_1
*CAP
1 *1469:A 5.70473e-05
2 *1227:C1 0
3 *1225:Y 9.58586e-05
4 *96:8 0.000152906
5 *1469:A *1225:C 1.21289e-05
6 *1469:A *1225:D 9.60939e-05
7 *1469:A *1233:B_N 6.05161e-06
8 *1469:A *209:98 8.86413e-05
9 *96:8 *1225:C 9.60939e-05
10 *96:8 *1227:B2 5.7661e-06
11 *96:8 *209:98 0
12 *96:8 *210:29 9.60875e-05
*RES
1 *1225:Y *96:8 12.2107 
2 *96:8 *1227:C1 9.3 
3 *96:8 *1469:A 11.8893 
*END

*D_NET *97 0.0116166
*CONN
*I *1275:A2 I *D sky130_fd_sc_hd__o22a_1
*I *1243:A2 I *D sky130_fd_sc_hd__o21ba_1
*I *1265:A2 I *D sky130_fd_sc_hd__o21ba_1
*I *1254:A2 I *D sky130_fd_sc_hd__o21ba_1
*I *1226:X O *D sky130_fd_sc_hd__or4_2
*CAP
1 *1275:A2 0
2 *1243:A2 0.000687725
3 *1265:A2 0
4 *1254:A2 0.00126949
5 *1226:X 0
6 *97:52 0.000920396
7 *97:35 0.00103376
8 *97:6 0.00207057
9 *1243:A2 *1243:A1 0.000114168
10 *1243:A2 *1275:B1 3.99614e-06
11 *1243:A2 *1275:B2 8.90199e-05
12 *1243:A2 *1278:A1 0.000247471
13 *1243:A2 *1278:S 0.000706537
14 *1243:A2 *204:63 0.00100541
15 *1254:A2 *1226:A 2.19684e-05
16 *1254:A2 *1250:A1 0.000265447
17 *1254:A2 *1250:B1 5.52302e-05
18 *1254:A2 *1250:B2 4.65675e-05
19 *1254:A2 *1254:A1 5.45515e-05
20 *1254:A2 *1254:B1_N 3.99614e-06
21 *1254:A2 *1255:B1 0.000266473
22 *1254:A2 *1438:A 0.000108118
23 *97:35 *1259:A1 3.34672e-05
24 *97:35 *1264:B 0
25 *97:35 *1265:A1 6.65398e-05
26 *97:35 *1266:B1 0.000178163
27 *97:35 *1366:RESET_B 5.98293e-05
28 *97:35 *1391:CLK 0.000219741
29 *97:35 *1438:A 7.83587e-05
30 *97:35 *132:26 0
31 *97:35 *169:12 0.000908354
32 *97:35 *184:89 0.000121203
33 *97:35 *204:63 4.46186e-06
34 *97:35 *205:35 0
35 *97:52 *1275:B1 0.000283776
36 *97:52 *1275:B2 2.65105e-05
37 *97:52 *1276:A0 1.02504e-05
38 *97:52 *204:63 0
39 *97:52 *204:80 1.3701e-05
40 *97:52 *205:35 5.41794e-05
41 *1242:B *1243:A2 7.78179e-05
42 *1242:B *97:52 9.62347e-05
43 *1250:A2 *1254:A2 0.000278092
44 *88:12 *1254:A2 0
45 *88:12 *97:35 0
46 *88:42 *1254:A2 0.000135028
47 *92:36 *97:35 0
*RES
1 *1226:X *97:6 13.8 
2 *97:6 *1254:A2 35.7821 
3 *97:6 *97:35 26.2321 
4 *97:35 *1265:A2 9.3 
5 *97:35 *97:52 14.1071 
6 *97:52 *1243:A2 28.2464 
7 *97:52 *1275:A2 9.3 
*END

*D_NET *98 0.00136101
*CONN
*I *1230:C1 I *D sky130_fd_sc_hd__a221o_1
*I *1227:X O *D sky130_fd_sc_hd__a221o_1
*CAP
1 *1230:C1 0.000579583
2 *1227:X 0.000579583
3 *1230:C1 *1222:B 0
4 *1230:C1 *1230:B2 1.02504e-05
5 *1230:C1 *1247:C1 1.50181e-05
6 *1230:C1 *1303:A1 0
7 *1230:C1 *1445:A 9.59532e-06
8 *1230:C1 *197:74 0.000100735
9 *1230:C1 *197:78 4.56311e-05
10 *1230:C1 *209:37 0
11 *1230:C1 *210:29 2.06112e-05
*RES
1 *1227:X *1230:C1 39.6156 
*END

*D_NET *99 0.00865914
*CONN
*I *1258:A2 I *D sky130_fd_sc_hd__a221o_1
*I *1269:A2 I *D sky130_fd_sc_hd__a221o_1
*I *1230:A2 I *D sky130_fd_sc_hd__a221o_1
*I *1292:B I *D sky130_fd_sc_hd__nand2_2
*I *1245:B1 I *D sky130_fd_sc_hd__a22o_1
*I *1228:X O *D sky130_fd_sc_hd__and4bb_2
*CAP
1 *1258:A2 0.000313656
2 *1269:A2 0.000249756
3 *1230:A2 2.75423e-05
4 *1292:B 0.00011287
5 *1245:B1 0.000325177
6 *1228:X 0
7 *99:55 0.00152212
8 *99:40 0.00140725
9 *99:23 0.000724706
10 *99:4 0.00051601
11 *1230:A2 *1230:B1 4.79574e-05
12 *1245:B1 *1230:A1 0.000184521
13 *1245:B1 *1245:A1 4.60235e-05
14 *1245:B1 *1245:B2 5.33005e-05
15 *1245:B1 *1293:A1 2.16394e-05
16 *1245:B1 *1293:S 0.000148189
17 *1245:B1 *1372:RESET_B 0
18 *1245:B1 *147:12 0.000139208
19 *1245:B1 *214:37 0.000311028
20 *1258:A2 *1258:A1 0.00012095
21 *1258:A2 *1258:B1 0
22 *1258:A2 *1258:C1 0.000340781
23 *1258:A2 *1295:A0 9.25014e-06
24 *1258:A2 *1316:A0 6.55592e-05
25 *1258:A2 *186:91 3.21021e-05
26 *1258:A2 *253:10 1.17968e-05
27 *1269:A2 *1217:A_N 0.000104236
28 *1269:A2 *1258:B1 0
29 *1269:A2 *1270:C1 1.33343e-05
30 *1269:A2 *1427:A 1.00375e-05
31 *1269:A2 *101:24 2.0047e-05
32 *1269:A2 *186:91 1.59689e-05
33 *1269:A2 *199:80 0
34 *1269:A2 *199:93 0
35 *1269:A2 *201:122 5.80706e-06
36 *1292:B *1222:A 7.6644e-05
37 *1292:B *1222:B 3.69697e-05
38 *1292:B *1222:C 1.56e-05
39 *99:23 *1230:A1 0.000253473
40 *99:40 *1230:A1 0.00055586
41 *99:40 *1230:B1 1.65476e-05
42 *99:55 *1230:B1 0.000191137
43 *99:55 *101:24 1.40276e-05
44 *99:55 *182:10 0.000106141
45 *99:55 *186:91 9.87983e-06
46 *99:55 *209:106 0.000350136
47 *1375:D *99:55 8.3722e-05
48 *93:14 *1292:B 4.81734e-05
*RES
1 *1228:X *99:4 9.3 
2 *99:4 *1245:B1 25.925 
3 *99:4 *99:23 2.58929 
4 *99:23 *1292:B 20.6036 
5 *99:23 *99:40 5.89732 
6 *99:40 *1230:A2 10.0321 
7 *99:40 *99:55 17.3259 
8 *99:55 *1269:A2 18.6929 
9 *99:55 *1258:A2 21.3 
*END

*D_NET *100 0.00592054
*CONN
*I *1256:B1 I *D sky130_fd_sc_hd__a22o_1
*I *1268:B1 I *D sky130_fd_sc_hd__a221o_1
*I *1307:B I *D sky130_fd_sc_hd__nand2_1
*I *1251:B1 I *D sky130_fd_sc_hd__a221o_1
*I *1230:B1 I *D sky130_fd_sc_hd__a221o_1
*I *1229:X O *D sky130_fd_sc_hd__and4bb_1
*CAP
1 *1256:B1 0
2 *1268:B1 2.72971e-05
3 *1307:B 0.000102252
4 *1251:B1 0
5 *1230:B1 0.000162398
6 *1229:X 0.000100072
7 *100:50 0.000389844
8 *100:42 0.000861776
9 *100:27 0.000668061
10 *100:8 0.000329051
11 *1230:B1 *1230:A1 5.33005e-05
12 *1230:B1 *101:24 4.05411e-05
13 *1268:B1 *1268:C1 5.52302e-05
14 *1268:B1 *1311:A1 3.18676e-05
15 *1268:B1 *146:44 1.74352e-05
16 *1268:B1 *208:62 0.000174232
17 *1268:B1 *266:14 3.04785e-05
18 *1307:B *1268:C1 0.000397911
19 *1307:B *150:6 2.28499e-05
20 *1307:B *208:62 0.000227526
21 *1307:B *208:68 0.000232273
22 *100:8 *1375:CLK 1.76039e-05
23 *100:8 *116:14 0
24 *100:8 *210:29 4.46186e-06
25 *100:27 *1251:A1 1.02504e-05
26 *100:27 *1375:CLK 7.15591e-05
27 *100:42 *1251:A1 0.000651575
28 *100:42 *1256:A1 1.74352e-05
29 *100:42 *1256:B2 1.97695e-05
30 *100:42 *1310:A1 0
31 *100:42 *1375:CLK 0.000104067
32 *100:42 *150:18 0
33 *100:42 *191:68 9.82143e-05
34 *100:42 *191:90 0.00013809
35 *100:50 *1256:A1 3.18676e-05
36 *100:50 *1310:A1 1.76039e-05
37 *100:50 *1368:CLK 0
38 *100:50 *150:14 0
39 *100:50 *183:61 0.000215692
40 *1230:A2 *1230:B1 4.79574e-05
41 *1256:A2 *100:42 0.000109393
42 *1475:A *100:50 0
43 *95:42 *100:8 6.26466e-05
44 *95:42 *100:27 4.8476e-05
45 *95:42 *100:42 0.000121793
46 *99:40 *1230:B1 1.65476e-05
47 *99:55 *1230:B1 0.000191137
*RES
1 *1229:X *100:8 16.05 
2 *100:8 *1230:B1 18.2107 
3 *100:8 *100:27 1.94643 
4 *100:27 *1251:B1 13.8 
5 *100:27 *100:42 21.2857 
6 *100:42 *100:50 14.2143 
7 *100:50 *1307:B 13.9607 
8 *100:50 *1268:B1 11.0679 
9 *100:42 *1256:B1 9.3 
*END

*D_NET *101 0.00776888
*CONN
*I *1241:D1 I *D sky130_fd_sc_hd__a2111o_1
*I *1230:X O *D sky130_fd_sc_hd__a221o_1
*CAP
1 *1241:D1 0.000647592
2 *1230:X 0.00189468
3 *101:24 0.00254227
4 *1241:D1 *1241:A1 4.1331e-06
5 *1241:D1 *1250:B1 0.000368104
6 *1241:D1 *1250:B2 9.78605e-05
7 *1241:D1 *1252:A1 0
8 *1241:D1 *1270:A1 3.21613e-05
9 *1241:D1 *1270:B2 6.26774e-06
10 *1241:D1 *1319:A1 0.000104974
11 *1241:D1 *102:37 0.000241935
12 *1241:D1 *112:12 0.000183832
13 *1241:D1 *171:125 9.60939e-05
14 *101:24 *1269:C1 2.14658e-05
15 *101:24 *1270:C1 0.000732166
16 *101:24 *1296:A0 0.000131868
17 *101:24 *1296:A1 4.46231e-06
18 *101:24 *1437:A 7.83587e-05
19 *101:24 *182:10 0.000180239
20 *101:24 *254:12 5.33005e-05
21 *1230:B1 *101:24 4.05411e-05
22 *1269:A2 *101:24 2.0047e-05
23 *1270:A2 *1241:D1 4.04353e-05
24 *1270:B1 *1241:D1 1.58163e-05
25 *1375:D *101:24 0.000122091
26 *92:10 *101:24 9.41642e-05
27 *99:55 *101:24 1.40276e-05
*RES
1 *1230:X *101:24 44.7375 
2 *101:24 *1241:D1 32.9161 
*END

*D_NET *102 0.00878198
*CONN
*I *1258:B1 I *D sky130_fd_sc_hd__a221o_1
*I *1250:B1 I *D sky130_fd_sc_hd__a221o_1
*I *1317:B I *D sky130_fd_sc_hd__nand2_2
*I *1241:A2 I *D sky130_fd_sc_hd__a2111o_1
*I *1273:B1 I *D sky130_fd_sc_hd__a221o_1
*I *1231:X O *D sky130_fd_sc_hd__and3b_2
*CAP
1 *1258:B1 0.000546879
2 *1250:B1 0.00021637
3 *1317:B 1.22324e-05
4 *1241:A2 0
5 *1273:B1 0.000289074
6 *1231:X 2.89187e-05
7 *102:37 0.000277465
8 *102:29 0.00183235
9 *102:10 0.00171162
10 *102:8 0.000647597
11 *1250:B1 *1250:B2 0.000106865
12 *1250:B1 *1270:A1 0
13 *1250:B1 *112:12 1.37292e-05
14 *1250:B1 *118:12 0.000279948
15 *1258:B1 *1217:C 0.000195547
16 *1258:B1 *1226:B 0
17 *1258:B1 *1258:B2 0.000173797
18 *1258:B1 *1258:C1 5.52238e-05
19 *1258:B1 *1316:A0 1.92789e-05
20 *1258:B1 *198:49 3.31552e-05
21 *1258:B1 *199:80 6.00295e-05
22 *1258:B1 *199:93 8.15939e-05
23 *1273:B1 *1226:B 0
24 *1273:B1 *1273:B2 2.85377e-05
25 *1273:B1 *1321:A1 3.3283e-05
26 *1273:B1 *103:8 0
27 *1273:B1 *140:12 3.34366e-05
28 *1273:B1 *199:49 5.94543e-05
29 *1273:B1 *201:92 0
30 *1317:B *152:8 2.28598e-05
31 *102:8 *1232:B 5.49544e-05
32 *102:10 *1226:B 0
33 *102:10 *199:49 2.99773e-05
34 *102:29 *1226:A 1.82549e-05
35 *102:29 *1226:B 5.41494e-05
36 *102:29 *1286:A1 1.40306e-05
37 *102:29 *1286:S 0.000153131
38 *102:29 *104:12 9.00795e-06
39 *102:29 *207:117 1.79326e-05
40 *102:29 *207:132 8.07397e-06
41 *102:29 *210:52 5.11684e-05
42 *102:37 *1241:A1 0
43 *102:37 *118:12 0.000136475
44 *102:37 *152:8 1.24368e-05
45 *1231:B *1258:B1 0.000147742
46 *1231:B *102:10 3.51442e-05
47 *1241:D1 *1250:B1 0.000368104
48 *1241:D1 *102:37 0.000241935
49 *1249:A2 *1317:B 5.52302e-05
50 *1249:A2 *102:37 0.000132957
51 *1254:A2 *1250:B1 5.52302e-05
52 *1258:A2 *1258:B1 0
53 *1269:A2 *1258:B1 0
54 *1273:A2 *1273:B1 0.000202048
55 *1367:D *102:29 2.89114e-05
56 *91:14 *1258:B1 9.60337e-06
57 *92:10 *1258:B1 8.0089e-05
58 *92:27 *1258:B1 0.000106158
*RES
1 *1231:X *102:8 14.3357 
2 *102:8 *102:10 1.33929 
3 *102:10 *1273:B1 19.4607 
4 *102:10 *102:29 25.1429 
5 *102:29 *102:37 10.9821 
6 *102:37 *1241:A2 9.3 
7 *102:37 *1317:B 9.83571 
8 *102:29 *1250:B1 21.4429 
9 *102:8 *1258:B1 26.6036 
*END

*D_NET *103 0.0118481
*CONN
*I *1274:A2 I *D sky130_fd_sc_hd__a2111o_1
*I *1249:B1 I *D sky130_fd_sc_hd__a22o_1
*I *1234:A2 I *D sky130_fd_sc_hd__a22o_1
*I *1337:B I *D sky130_fd_sc_hd__nand2_2
*I *1262:B1 I *D sky130_fd_sc_hd__a221o_1
*I *1232:X O *D sky130_fd_sc_hd__and3_2
*CAP
1 *1274:A2 0.00020034
2 *1249:B1 0.000649143
3 *1234:A2 3.04135e-05
4 *1337:B 0.000682958
5 *1262:B1 0.000507183
6 *1232:X 0.000359376
7 *103:45 0.000788735
8 *103:41 0.000917728
9 *103:35 0.00130129
10 *103:8 0.00177429
11 *1234:A2 *1408:CLK 5.33005e-05
12 *1249:B1 *1249:A1 2.89114e-05
13 *1249:B1 *1339:S 0.000186379
14 *1249:B1 *175:64 8.17274e-05
15 *1249:B1 *206:129 0.000184162
16 *1249:B1 *212:33 0.000206491
17 *1262:B1 *1262:C1 8.64475e-05
18 *1262:B1 *1271:B1 5.71472e-05
19 *1262:B1 *1355:RESET_B 0
20 *1262:B1 *104:12 0.000190491
21 *1262:B1 *155:44 3.0285e-05
22 *1262:B1 *171:81 0
23 *1274:A2 *1241:C1 0.000104236
24 *1274:A2 *118:12 9.97744e-05
25 *1274:A2 *190:40 0.000315158
26 *1337:B *1241:C1 8.91822e-05
27 *1337:B *1252:A1 0.000262408
28 *1337:B *1327:B 0
29 *1337:B *1329:A0 2.04825e-05
30 *1337:B *1329:A1 7.83659e-05
31 *1337:B *1329:S 0.000225609
32 *1337:B *1337:A 3.14078e-05
33 *1337:B *104:44 1.43349e-05
34 *1337:B *154:6 8.66063e-05
35 *1337:B *156:16 5.35516e-05
36 *1337:B *189:88 0
37 *1337:B *206:115 1.74352e-05
38 *103:8 *1226:A 0.000172112
39 *103:8 *1226:B 0.000147219
40 *103:8 *1273:A1 0.0001315
41 *103:8 *1355:RESET_B 0
42 *103:8 *104:12 0.000215218
43 *103:8 *207:51 0
44 *103:8 *242:10 5.10822e-05
45 *103:35 *1411:RESET_B 9.51097e-06
46 *103:35 *171:125 5.66157e-05
47 *103:35 *180:25 0.000195365
48 *103:35 *230:8 0.000196968
49 *103:41 *1241:C1 6.5185e-05
50 *103:41 *118:12 6.19181e-05
51 *103:41 *175:64 0.000180764
52 *103:45 *1241:B1 0.000195547
53 *103:45 *1241:C1 2.23987e-05
54 *103:45 *1252:A1 0.000243627
55 *1249:A2 *1249:B1 5.91094e-05
56 *1262:A2 *1262:B1 0
57 *1273:B1 *103:8 0
58 *1411:D *103:35 0.000128651
*RES
1 *1232:X *103:8 23.6393 
2 *103:8 *1262:B1 23.4964 
3 *103:8 *103:35 32.125 
4 *103:35 *103:41 7.91071 
5 *103:41 *103:45 7.66071 
6 *103:45 *1337:B 25.7821 
7 *103:45 *1234:A2 14.3357 
8 *103:41 *1249:B1 31.2286 
9 *103:35 *1274:A2 19.3536 
*END

*D_NET *104 0.0109261
*CONN
*I *1327:B I *D sky130_fd_sc_hd__nand2_1
*I *1252:A2 I *D sky130_fd_sc_hd__a2111o_1
*I *1234:B1 I *D sky130_fd_sc_hd__a22o_1
*I *1271:A2 I *D sky130_fd_sc_hd__a22o_1
*I *1260:A2 I *D sky130_fd_sc_hd__a22o_1
*I *1233:X O *D sky130_fd_sc_hd__and4bb_2
*CAP
1 *1327:B 5.07699e-05
2 *1252:A2 0.00052732
3 *1234:B1 0
4 *1271:A2 0
5 *1260:A2 0.000304031
6 *1233:X 0.00108735
7 *104:44 0.000677339
8 *104:40 0.000760954
9 *104:29 0.000742997
10 *104:12 0.00157421
11 *1252:A2 *1234:B2 1.02504e-05
12 *1252:A2 *1252:A1 0.000106149
13 *1252:A2 *1252:C1 0.000123295
14 *1252:A2 *1286:S 0.000137983
15 *1252:A2 *1318:S 4.75812e-05
16 *1252:A2 *1365:CLK 0.000175636
17 *1252:A2 *1409:CLK 4.98968e-05
18 *1252:A2 *152:25 4.43142e-05
19 *1252:A2 *175:50 0.00019384
20 *1252:A2 *175:64 0.000217807
21 *1252:A2 *206:115 0
22 *1252:A2 *206:129 6.07532e-05
23 *1260:A2 *1260:A1 0.000743433
24 *1260:A2 *1263:A1 0.00018077
25 *1260:A2 *1271:B2 0
26 *1260:A2 *1335:A1 4.27935e-05
27 *1260:A2 *1336:S 0.00014285
28 *1260:A2 *1403:CLK 4.46186e-06
29 *1260:A2 *155:44 0
30 *1260:A2 *171:36 7.32955e-05
31 *1260:A2 *179:16 0.000130079
32 *1327:B *1329:S 8.27532e-05
33 *1327:B *154:6 3.52966e-05
34 *1327:B *156:16 9.85067e-05
35 *104:12 *1226:A 0.000316384
36 *104:12 *1262:B2 0
37 *104:12 *1262:C1 5.31915e-05
38 *104:12 *1271:B2 0
39 *104:12 *1411:CLK 0
40 *104:12 *155:44 0
41 *104:12 *190:16 0
42 *104:12 *206:24 0.000148911
43 *104:12 *207:78 0
44 *104:12 *229:10 0
45 *104:29 *1262:B2 7.77751e-05
46 *104:29 *1271:A1 2.44318e-05
47 *104:29 *1271:B1 4.70078e-05
48 *104:40 *1271:A1 0.000271345
49 *104:40 *1329:S 0.000176129
50 *104:40 *156:16 0.000211607
51 *104:44 *1234:B2 0.000406611
52 *104:44 *1252:A1 0.000125665
53 *104:44 *1329:A0 9.59532e-06
54 *1262:B1 *104:12 0.000190491
55 *1337:B *1327:B 0
56 *1337:B *104:44 1.43349e-05
57 *1392:D *1252:A2 0.000100823
58 *1401:D *104:44 0.000100831
59 *102:29 *104:12 9.00795e-06
60 *103:8 *104:12 0.000215218
*RES
1 *1233:X *104:12 34.675 
2 *104:12 *1260:A2 23.4607 
3 *104:12 *104:29 8.33929 
4 *104:29 *1271:A2 9.3 
5 *104:29 *104:40 11.7679 
6 *104:40 *104:44 9.78571 
7 *104:44 *1234:B1 13.8 
8 *104:44 *1252:A2 27.7821 
9 *104:40 *1327:B 11.2107 
*END

*D_NET *105 0.00168958
*CONN
*I *1241:B1 I *D sky130_fd_sc_hd__a2111o_1
*I *1234:X O *D sky130_fd_sc_hd__a22o_1
*CAP
1 *1241:B1 0.000229221
2 *1234:X 0.000229221
3 *1241:B1 *1241:A1 0.000216771
4 *1241:B1 *1241:C1 0.00064841
5 *1241:B1 *1252:A1 9.20457e-05
6 *1241:B1 *1318:A1 7.83659e-05
7 *1241:B1 *118:12 0
8 *103:45 *1241:B1 0.000195547
*RES
1 *1234:X *1241:B1 36.225 
*END

*D_NET *106 0.0101869
*CONN
*I *1248:B1 I *D sky130_fd_sc_hd__a22o_1
*I *1342:B I *D sky130_fd_sc_hd__nand2_1
*I *1237:A2 I *D sky130_fd_sc_hd__a22o_1
*I *1260:B1 I *D sky130_fd_sc_hd__a22o_1
*I *1269:B1 I *D sky130_fd_sc_hd__a221o_1
*I *1235:X O *D sky130_fd_sc_hd__and4b_2
*CAP
1 *1248:B1 4.44056e-05
2 *1342:B 0
3 *1237:A2 0.000292929
4 *1260:B1 0
5 *1269:B1 0.000238421
6 *1235:X 0.000460375
7 *106:60 0.000693258
8 *106:47 0.000989201
9 *106:35 0.00131062
10 *106:12 0.00137613
11 *1237:A2 *157:6 2.28499e-05
12 *1237:A2 *171:36 0.000135691
13 *1248:B1 *207:51 2.21972e-05
14 *1269:B1 *1211:B 0.000258199
15 *1269:B1 *1269:C1 2.59355e-05
16 *1269:B1 *1296:A1 5.33005e-05
17 *1269:B1 *1427:A 3.14964e-05
18 *1269:B1 *1437:A 5.51406e-05
19 *1269:B1 *167:10 9.91086e-05
20 *1269:B1 *197:105 7.6644e-05
21 *1269:B1 *197:120 0.000280663
22 *106:12 *1227:A1 2.79092e-05
23 *106:12 *197:105 0.000569194
24 *106:12 *199:27 3.38674e-05
25 *106:12 *201:92 1.74352e-05
26 *106:35 *1427:A 0.000122407
27 *106:35 *140:12 0
28 *106:35 *201:92 0.000159925
29 *106:35 *207:51 1.62539e-05
30 *106:47 *1214:A0 0
31 *106:47 *1263:A1 0
32 *106:47 *1263:B1 0
33 *106:47 *1263:C1 2.62984e-05
34 *106:47 *1344:A0 0.000455577
35 *106:47 *110:59 1.21955e-05
36 *106:47 *111:26 8.49508e-05
37 *106:47 *155:44 1.13406e-05
38 *106:47 *207:51 0.000139842
39 *106:60 *1260:B2 0.000309266
40 *106:60 *1344:A0 3.38564e-05
41 *106:60 *1344:A1 0.000110952
42 *106:60 *1344:S 4.27935e-05
43 *106:60 *157:6 0.000616976
44 *106:60 *171:36 0.000451253
45 *1215:S *106:35 1.02504e-05
46 *1215:S *106:47 0
47 *1216:S *106:35 0.000275809
48 *1354:D *106:47 6.86764e-05
49 *87:19 *106:35 0.000123288
*RES
1 *1235:X *106:12 25.2107 
2 *106:12 *1269:B1 25.0321 
3 *106:12 *106:35 16.6339 
4 *106:35 *106:47 25.0804 
5 *106:47 *1260:B1 9.3 
6 *106:47 *106:60 11.7857 
7 *106:60 *1237:A2 14.3893 
8 *106:60 *1342:B 9.3 
9 *106:35 *1248:B1 14.6125 
*END

*D_NET *107 0.00664506
*CONN
*I *1246:A2 I *D sky130_fd_sc_hd__a22o_1
*I *1272:A2 I *D sky130_fd_sc_hd__a22o_1
*I *1261:A2 I *D sky130_fd_sc_hd__a22o_1
*I *1237:B1 I *D sky130_fd_sc_hd__a22o_1
*I *1322:B I *D sky130_fd_sc_hd__nand2_2
*I *1236:X O *D sky130_fd_sc_hd__and4bb_2
*CAP
1 *1246:A2 0.000162064
2 *1272:A2 0
3 *1261:A2 0.000278529
4 *1237:B1 0.000134937
5 *1322:B 0.000121348
6 *1236:X 0.000134434
7 *107:30 0.000503778
8 *107:26 0.00106143
9 *107:18 0.000960899
10 *107:10 0.000721993
11 *1237:B1 *171:36 0.000101169
12 *1246:A2 *109:25 0.00044406
13 *1261:A2 *1261:B1 9.66544e-05
14 *1261:A2 *1347:A 0.000184246
15 *1261:A2 *1347:B 5.49489e-05
16 *1261:A2 *1348:A0 9.64165e-05
17 *1261:A2 *1348:A1 5.52238e-05
18 *1261:A2 *1418:RESET_B 5.7661e-06
19 *1261:A2 *158:8 5.74499e-06
20 *1261:A2 *158:30 2.12087e-05
21 *1261:A2 *206:44 0.000126426
22 *1322:B *1322:A 3.62509e-05
23 *1322:B *171:36 4.30274e-05
24 *1322:B *214:18 0
25 *107:10 *1247:A1 8.62038e-05
26 *107:10 *214:37 6.09572e-05
27 *107:18 *1272:B2 2.59355e-05
28 *107:18 *1303:A0 2.47753e-05
29 *107:18 *1324:S 9.60875e-05
30 *107:18 *1380:CLK 0
31 *107:18 *214:37 0.000109224
32 *107:26 *1272:A1 0.000225307
33 *107:26 *1303:A0 0
34 *107:26 *1322:A 6.52251e-06
35 *107:26 *1348:A0 0
36 *107:26 *1351:S 5.31234e-05
37 *107:26 *109:25 5.80706e-06
38 *107:26 *109:29 0.000366286
39 *107:30 *1237:B2 0
40 *107:30 *1240:C1 0
41 *107:30 *1322:A 7.32475e-05
42 *107:30 *1348:A1 0
43 *107:30 *1416:CLK 0.00010633
44 *1405:D *107:26 0
45 *1416:D *1261:A2 5.47047e-05
*RES
1 *1236:X *107:10 16.3893 
2 *107:10 *107:18 11.7143 
3 *107:18 *107:26 15.3036 
4 *107:26 *107:30 9.48214 
5 *107:30 *1322:B 11.4964 
6 *107:30 *1237:B1 11.8893 
7 *107:26 *1261:A2 20.1036 
8 *107:18 *1272:A2 9.3 
9 *107:10 *1246:A2 18.0321 
*END

*D_NET *108 0.000308616
*CONN
*I *1240:C1 I *D sky130_fd_sc_hd__a221o_1
*I *1237:X O *D sky130_fd_sc_hd__a22o_1
*CAP
1 *1240:C1 7.81416e-05
2 *1237:X 7.81416e-05
3 *1240:C1 *1240:B2 0.000152333
4 *107:30 *1240:C1 0
*RES
1 *1237:X *1240:C1 29.5464 
*END

*D_NET *109 0.00864632
*CONN
*I *1272:B1 I *D sky130_fd_sc_hd__a22o_1
*I *1240:A2 I *D sky130_fd_sc_hd__a221o_1
*I *1347:B I *D sky130_fd_sc_hd__nand2_1
*I *1261:B1 I *D sky130_fd_sc_hd__a22o_1
*I *1246:B1 I *D sky130_fd_sc_hd__a22o_1
*I *1238:X O *D sky130_fd_sc_hd__and4b_2
*CAP
1 *1272:B1 0
2 *1240:A2 0.000627189
3 *1347:B 1.78345e-05
4 *1261:B1 0.00011084
5 *1246:B1 0
6 *1238:X 0.000336557
7 *109:41 0.000545687
8 *109:29 0.00125385
9 *109:25 0.000635532
10 *109:14 0.000762443
11 *1240:A2 *1240:A1 1.24368e-05
12 *1240:A2 *1240:B1 6.25394e-06
13 *1240:A2 *1333:S 0.000123288
14 *1240:A2 *1334:S 0.000248706
15 *1240:A2 *110:10 0.000142293
16 *1240:A2 *110:14 0.000165435
17 *1240:A2 *173:22 0.000245623
18 *1261:B1 *1418:RESET_B 7.43578e-06
19 *1261:B1 *158:8 0.000147225
20 *1261:B1 *158:30 5.38444e-06
21 *1347:B *158:8 1.21258e-05
22 *109:14 *1238:C 0.000122081
23 *109:14 *1246:A1 7.32272e-05
24 *109:14 *1324:A1 2.59355e-05
25 *109:14 *1381:RESET_B 0.000103253
26 *109:14 *173:46 5.10822e-05
27 *109:25 *1246:A1 2.44318e-05
28 *109:25 *1303:A0 0.000123264
29 *109:25 *116:14 0.000693885
30 *109:29 *1272:A1 0.000225307
31 *109:29 *1272:B2 0.000495607
32 *109:29 *1351:S 5.7119e-05
33 *109:41 *173:22 0.000100142
34 *109:41 *214:37 0.000151163
35 *1246:A2 *109:25 0.00044406
36 *1261:A2 *1261:B1 9.66544e-05
37 *1261:A2 *1347:B 5.49489e-05
38 *1419:D *109:41 2.59355e-05
39 *107:26 *109:25 5.80706e-06
40 *107:26 *109:29 0.000366286
*RES
1 *1238:X *109:14 23.9964 
2 *109:14 *1246:B1 9.3 
3 *109:14 *109:25 16 
4 *109:25 *109:29 12.5179 
5 *109:29 *109:41 15.0179 
6 *109:41 *1261:B1 12.7464 
7 *109:41 *1347:B 9.83571 
8 *109:29 *1240:A2 29.2152 
9 *109:25 *1272:B1 13.8 
*END

*D_NET *110 0.00870009
*CONN
*I *1247:B1 I *D sky130_fd_sc_hd__a221o_1
*I *1332:B I *D sky130_fd_sc_hd__nand2_2
*I *1271:B1 I *D sky130_fd_sc_hd__a22o_1
*I *1263:A2 I *D sky130_fd_sc_hd__a211o_1
*I *1240:B1 I *D sky130_fd_sc_hd__a221o_1
*I *1239:X O *D sky130_fd_sc_hd__and4b_2
*CAP
1 *1247:B1 3.10819e-05
2 *1332:B 0
3 *1271:B1 0.000664523
4 *1263:A2 0
5 *1240:B1 0.000160031
6 *1239:X 7.75391e-05
7 *110:59 0.00195513
8 *110:14 0.00153899
9 *110:10 0.000645185
10 *110:6 0.000665458
11 *1240:B1 *1240:A1 2.84593e-05
12 *1240:B1 *177:76 6.05161e-06
13 *1247:B1 *1247:A1 2.59355e-05
14 *1271:B1 *1262:A1 0.000135028
15 *1271:B1 *1262:B2 0.000310558
16 *1271:B1 *111:26 0
17 *110:6 *1247:A1 6.69495e-05
18 *110:6 *1247:B2 1.28809e-05
19 *110:10 *1213:A1 0
20 *110:10 *1227:A1 0
21 *110:10 *1247:B2 0.0004825
22 *110:10 *1334:A1 0.000150618
23 *110:10 *1334:S 1.08359e-05
24 *110:10 *1342:A 9.54798e-06
25 *110:10 *116:14 0.000101545
26 *110:10 *175:70 0
27 *110:10 *178:20 0
28 *110:10 *197:105 1.3142e-05
29 *110:10 *207:18 0.000124822
30 *110:14 *1333:S 3.67548e-05
31 *110:14 *1342:A 0.000244982
32 *110:59 *1263:B1 7.69776e-06
33 *110:59 *1263:C1 0.000290724
34 *110:59 *1413:CLK 2.89114e-05
35 *110:59 *111:26 0.000215128
36 *110:59 *171:81 4.19624e-06
37 *110:59 *179:49 1.90936e-05
38 *1240:A2 *1240:B1 6.25394e-06
39 *1240:A2 *110:10 0.000142293
40 *1240:A2 *110:14 0.000165435
41 *1262:B1 *1271:B1 5.71472e-05
42 *1352:D *110:10 0.00010326
43 *1353:D *110:10 0
44 *1413:D *110:59 0.000102197
45 *104:29 *1271:B1 4.70078e-05
46 *106:47 *110:59 1.21955e-05
*RES
1 *1239:X *110:6 10.6571 
2 *110:6 *110:10 18.8929 
3 *110:10 *110:14 7.66071 
4 *110:14 *1240:B1 11.9429 
5 *110:14 *110:59 32.7369 
6 *110:59 *1263:A2 9.3 
7 *110:59 *1271:B1 18.2911 
8 *110:10 *1332:B 13.8 
9 *110:6 *1247:B1 9.83571 
*END

*D_NET *111 0.00772959
*CONN
*I *1241:C1 I *D sky130_fd_sc_hd__a2111o_1
*I *1240:X O *D sky130_fd_sc_hd__a221o_1
*CAP
1 *1241:C1 0.000998662
2 *1240:X 0.00132239
3 *111:26 0.00232105
4 *1241:C1 *1340:A0 5.52238e-05
5 *1241:C1 *1340:A1 0.000183039
6 *1241:C1 *1340:S 9.90367e-05
7 *1241:C1 *1401:CLK 0.000142856
8 *1241:C1 *118:12 0
9 *1241:C1 *156:16 0.000186437
10 *1241:C1 *189:101 5.03787e-05
11 *1241:C1 *206:24 0.000126439
12 *1241:C1 *241:8 0.000227532
13 *111:26 *1263:B1 3.86333e-06
14 *111:26 *1413:CLK 1.92905e-05
15 *111:26 *155:44 0.000128774
16 *111:26 *207:51 2.69016e-05
17 *111:26 *241:8 8.56752e-05
18 *1241:B1 *1241:C1 0.00064841
19 *1271:B1 *111:26 0
20 *1274:A2 *1241:C1 0.000104236
21 *1337:B *1241:C1 8.91822e-05
22 *1354:D *111:26 1.02504e-05
23 *1410:D *1241:C1 0.000440711
24 *1413:D *111:26 7.15846e-05
25 *103:41 *1241:C1 6.5185e-05
26 *103:45 *1241:C1 2.23987e-05
27 *106:47 *111:26 8.49508e-05
28 *110:59 *111:26 0.000215128
*RES
1 *1240:X *111:26 38.5857 
2 *111:26 *1241:C1 44.2643 
*END

*D_NET *112 0.00465492
*CONN
*I *1242:C I *D sky130_fd_sc_hd__or3_1
*I *1241:X O *D sky130_fd_sc_hd__a2111o_1
*CAP
1 *1242:C 0
2 *1241:X 0.00117511
3 *112:12 0.00117511
4 *112:12 *1219:A1 0.000185297
5 *112:12 *1250:B2 0.000248486
6 *112:12 *1252:A1 3.92854e-05
7 *112:12 *1253:C 0.000275579
8 *112:12 *1277:B 2.59795e-05
9 *112:12 *1319:A1 0.000103253
10 *112:12 *1364:CLK 6.72808e-05
11 *112:12 *1391:RESET_B 0.000193118
12 *112:12 *121:14 5.15808e-05
13 *112:12 *152:25 3.56515e-05
14 *112:12 *194:32 0.00010096
15 *112:12 *195:56 2.8266e-06
16 *112:12 *204:20 0.000220026
17 *112:12 *205:19 5.75896e-05
18 *112:12 *267:10 0.000147474
19 *1241:D1 *112:12 0.000183832
20 *1242:A *112:12 0.000128154
21 *1249:A2 *112:12 0.00022459
22 *1250:B1 *112:12 1.37292e-05
23 *1389:D *112:12 0
*RES
1 *1241:X *112:12 46.4071 
2 *112:12 *1242:C 9.3 
*END

*D_NET *113 0.000543298
*CONN
*I *1244:B1 I *D sky130_fd_sc_hd__a22o_1
*I *1242:X O *D sky130_fd_sc_hd__or3_1
*CAP
1 *1244:B1 0.000145856
2 *1242:X 0.000145856
3 *1244:B1 *1356:CLK 0
4 *1244:B1 *185:25 0
5 *1244:B1 *186:76 0.00010096
6 *1244:B1 *204:20 0.000150625
*RES
1 *1242:X *1244:B1 30.4929 
*END

*D_NET *114 0.00146962
*CONN
*I *1244:B2 I *D sky130_fd_sc_hd__a22o_1
*I *1243:X O *D sky130_fd_sc_hd__o21ba_1
*CAP
1 *1244:B2 0.000469539
2 *1243:X 0.000469539
3 *1244:B2 *1243:B1_N 9.25014e-06
4 *1244:B2 *1244:A2 0.000233424
5 *1244:B2 *1356:RESET_B 5.83304e-05
6 *1244:B2 *1471:A 0
7 *1244:B2 *175:193 4.75428e-05
8 *1244:B2 *204:20 4.01626e-05
9 *1356:D *1244:B2 0.000141835
*RES
1 *1243:X *1244:B2 38.0643 
*END

*D_NET *115 0.00356116
*CONN
*I *1247:C1 I *D sky130_fd_sc_hd__a221o_1
*I *1245:X O *D sky130_fd_sc_hd__a22o_1
*CAP
1 *1247:C1 0.000878785
2 *1245:X 0.000878785
3 *1247:C1 *1230:B2 0.000158406
4 *1247:C1 *1247:B2 1.02504e-05
5 *1247:C1 *1251:B2 0
6 *1247:C1 *1375:CLK 0
7 *1247:C1 *116:14 7.18472e-05
8 *1247:C1 *147:12 0.000356022
9 *1247:C1 *147:40 0.000258915
10 *1247:C1 *197:74 0.000197991
11 *1247:C1 *197:78 0.000282385
12 *1247:C1 *200:87 3.80904e-05
13 *1247:C1 *200:95 4.93223e-05
14 *1247:C1 *210:10 0.000290279
15 *1230:C1 *1247:C1 1.50181e-05
16 *95:18 *1247:C1 7.50601e-05
*RES
1 *1245:X *1247:C1 45.6714 
*END

*D_NET *116 0.00505079
*CONN
*I *1251:C1 I *D sky130_fd_sc_hd__a221o_1
*I *1246:X O *D sky130_fd_sc_hd__a22o_1
*CAP
1 *1251:C1 0
2 *1246:X 0.00155139
3 *116:14 0.00155139
4 *116:14 *1224:B_N 0.00013966
5 *116:14 *1247:B2 1.08359e-05
6 *116:14 *1251:B2 1.33343e-05
7 *116:14 *1375:CLK 8.9163e-05
8 *116:14 *1449:A 1.39841e-05
9 *116:14 *197:105 0.00019384
10 *116:14 *200:95 9.8958e-05
11 *116:14 *201:92 0.000113295
12 *116:14 *210:10 0.000143352
13 *116:14 *210:29 0.000116121
14 *1247:C1 *116:14 7.18472e-05
15 *95:18 *116:14 0.000148196
16 *100:8 *116:14 0
17 *109:25 *116:14 0.000693885
18 *110:10 *116:14 0.000101545
*RES
1 *1246:X *116:14 44.2821 
2 *116:14 *1251:C1 9.3 
*END

*D_NET *117 0.00600081
*CONN
*I *1252:B1 I *D sky130_fd_sc_hd__a2111o_1
*I *1247:X O *D sky130_fd_sc_hd__a221o_1
*CAP
1 *1252:B1 0.00295246
2 *1247:X 0.00295246
3 *1252:B1 *1233:B_N 4.86312e-05
4 *1252:B1 *1365:CLK 1.01912e-05
5 *1252:B1 *1445:A 2.06178e-05
6 *1252:B1 *152:25 1.01912e-05
7 *1252:B1 *197:105 6.2589e-06
8 *1221:C *1252:B1 0
9 *91:14 *1252:B1 0
*RES
1 *1247:X *1252:B1 40.6418 
*END

*D_NET *118 0.00476694
*CONN
*I *1250:C1 I *D sky130_fd_sc_hd__a221o_1
*I *1248:X O *D sky130_fd_sc_hd__a22o_1
*CAP
1 *1250:C1 0
2 *1248:X 0.00166619
3 *118:12 0.00166619
4 *118:12 *1241:A1 0
5 *118:12 *1248:A1 1.3701e-05
6 *118:12 *1270:A1 0
7 *118:12 *1274:A1 0
8 *118:12 *1274:B1 0
9 *118:12 *1339:S 0.000172536
10 *118:12 *1341:A0 5.52302e-05
11 *118:12 *1341:A1 0
12 *118:12 *156:29 0
13 *118:12 *171:125 0
14 *118:12 *175:64 0.000132547
15 *118:12 *206:24 0.000218203
16 *118:12 *207:78 0.000154046
17 *118:12 *207:132 0
18 *1241:B1 *118:12 0
19 *1241:C1 *118:12 0
20 *1250:B1 *118:12 0.000279948
21 *1262:A2 *118:12 5.49489e-05
22 *1274:A2 *118:12 9.97744e-05
23 *1411:D *118:12 5.52238e-05
24 *102:37 *118:12 0.000136475
25 *103:41 *118:12 6.19181e-05
*RES
1 *1248:X *118:12 46.8714 
2 *118:12 *1250:C1 13.8 
*END

*D_NET *119 0.00108629
*CONN
*I *1252:C1 I *D sky130_fd_sc_hd__a2111o_1
*I *1249:X O *D sky130_fd_sc_hd__a22o_1
*CAP
1 *1252:C1 0.000263396
2 *1249:X 0.000263396
3 *1252:C1 *152:25 0.00012501
4 *1249:A2 *1252:C1 0.00031119
5 *1252:A2 *1252:C1 0.000123295
*RES
1 *1249:X *1252:C1 32.2429 
*END

*D_NET *120 0.000209496
*CONN
*I *1253:A I *D sky130_fd_sc_hd__or3_1
*I *1250:X O *D sky130_fd_sc_hd__a221o_1
*CAP
1 *1253:A 8.57172e-05
2 *1250:X 8.57172e-05
3 *1253:A *1250:A1 1.21258e-05
4 *1253:A *1253:C 2.59355e-05
5 *1253:A *1254:A1 0
6 *1250:A2 *1253:A 0
*RES
1 *1250:X *1253:A 19.975 
*END

*D_NET *121 0.00687036
*CONN
*I *1253:B I *D sky130_fd_sc_hd__or3_1
*I *1251:X O *D sky130_fd_sc_hd__a221o_1
*CAP
1 *1253:B 0
2 *1251:X 0.00210522
3 *121:14 0.00210522
4 *121:14 *1252:D1 0.000267807
5 *121:14 *1253:C 8.07951e-05
6 *121:14 *1277:B 2.24646e-05
7 *121:14 *1391:RESET_B 2.61337e-05
8 *121:14 *1449:A 5.71472e-05
9 *121:14 *1468:A 4.88515e-05
10 *121:14 *160:29 3.67257e-05
11 *121:14 *166:10 0.00138178
12 *121:14 *167:31 4.53889e-05
13 *121:14 *208:8 2.59355e-05
14 *1251:A2 *121:14 0.000165768
15 *1389:D *121:14 0.000449539
16 *112:12 *121:14 5.15808e-05
*RES
1 *1251:X *121:14 47.8179 
2 *121:14 *1253:B 13.8 
*END

*D_NET *122 0.00138936
*CONN
*I *1253:C I *D sky130_fd_sc_hd__or3_1
*I *1252:X O *D sky130_fd_sc_hd__a2111o_1
*CAP
1 *1253:C 0.00029102
2 *1252:X 0.00029102
3 *1253:C *1250:A1 5.33005e-05
4 *1253:C *1252:D1 0.000115424
5 *1253:C *1286:S 2.72967e-05
6 *1253:C *152:25 0.000126439
7 *1253:A *1253:C 2.59355e-05
8 *1393:D *1253:C 0.000102545
9 *112:12 *1253:C 0.000275579
10 *121:14 *1253:C 8.07951e-05
*RES
1 *1252:X *1253:C 35.8857 
*END

*D_NET *123 0.00134613
*CONN
*I *1255:B1 I *D sky130_fd_sc_hd__a22o_1
*I *1253:X O *D sky130_fd_sc_hd__or3_1
*CAP
1 *1255:B1 0.000479473
2 *1253:X 0.000479473
3 *1255:B1 *1254:A1 1.21258e-05
4 *1255:B1 *1255:A1 6.09804e-05
5 *1255:B1 *1255:B2 3.18676e-05
6 *1255:B1 *204:164 1.57414e-05
7 *1254:A2 *1255:B1 0.000266473
*RES
1 *1253:X *1255:B1 24.9036 
*END

*D_NET *124 0.000104357
*CONN
*I *1255:B2 I *D sky130_fd_sc_hd__a22o_1
*I *1254:X O *D sky130_fd_sc_hd__o21ba_1
*CAP
1 *1255:B2 7.67105e-06
2 *1254:X 7.67105e-06
3 *1255:B2 *1255:A1 5.71472e-05
4 *1255:B1 *1255:B2 3.18676e-05
*RES
1 *1254:X *1255:B2 19.1357 
*END

*D_NET *125 0.00192738
*CONN
*I *1257:C1 I *D sky130_fd_sc_hd__a221o_1
*I *1256:X O *D sky130_fd_sc_hd__a22o_1
*CAP
1 *1257:C1 0.000641712
2 *1256:X 0.000641712
3 *1257:C1 *1257:B2 2.97137e-05
4 *1257:C1 *1290:A1 3.14078e-05
5 *1257:C1 *1290:S 0.000519496
6 *1256:A2 *1257:C1 5.33334e-05
7 *1370:D *1257:C1 1.00073e-05
*RES
1 *1256:X *1257:C1 29.725 
*END

*D_NET *126 0.000638753
*CONN
*I *1264:A I *D sky130_fd_sc_hd__or3_1
*I *1257:X O *D sky130_fd_sc_hd__a221o_1
*CAP
1 *1264:A 0.000135897
2 *1257:X 0.000135897
3 *1264:A *1290:A0 0.00026613
4 *92:36 *1264:A 0.000100831
*RES
1 *1257:X *1264:A 31.1357 
*END

*D_NET *127 0.000789505
*CONN
*I *1259:C1 I *D sky130_fd_sc_hd__a221o_1
*I *1258:X O *D sky130_fd_sc_hd__a221o_1
*CAP
1 *1259:C1 0.00023939
2 *1258:X 0.00023939
3 *1259:C1 *1295:A0 0
4 *1259:C1 *1316:A0 0.000232399
5 *1259:C1 *172:52 0
6 *92:27 *1259:C1 7.8327e-05
*RES
1 *1258:X *1259:C1 31.725 
*END

*D_NET *128 0.0004967
*CONN
*I *1264:B I *D sky130_fd_sc_hd__or3_1
*I *1259:X O *D sky130_fd_sc_hd__a221o_1
*CAP
1 *1264:B 0.000177077
2 *1259:X 0.000177077
3 *1264:B *184:89 0.00010326
4 *1264:B *257:14 3.92854e-05
5 *92:36 *1264:B 0
6 *97:35 *1264:B 0
*RES
1 *1259:X *1264:B 31.0643 
*END

*D_NET *129 0.000446166
*CONN
*I *1263:B1 I *D sky130_fd_sc_hd__a211o_1
*I *1260:X O *D sky130_fd_sc_hd__a22o_1
*CAP
1 *1263:B1 0.000131549
2 *1260:X 0.000131549
3 *1263:B1 *1263:A1 0.000148065
4 *1263:B1 *1263:C1 2.34423e-05
5 *106:47 *1263:B1 0
6 *110:59 *1263:B1 7.69776e-06
7 *111:26 *1263:B1 3.86333e-06
*RES
1 *1260:X *1263:B1 30.3902 
*END

*D_NET *130 0.00647421
*CONN
*I *1262:C1 I *D sky130_fd_sc_hd__a221o_1
*I *1261:X O *D sky130_fd_sc_hd__a22o_1
*CAP
1 *1262:C1 0.00304871
2 *1261:X 0.00304871
3 *1262:C1 *1261:A1 1.19472e-05
4 *1262:C1 *1263:C1 6.31429e-05
5 *1262:C1 *132:26 4.18305e-05
6 *1262:C1 *155:44 0.000108251
7 *1262:C1 *214:37 1.19834e-05
8 *1262:B1 *1262:C1 8.64475e-05
9 *104:12 *1262:C1 5.31915e-05
*RES
1 *1261:X *1262:C1 41.9278 
*END

*D_NET *131 0.000828381
*CONN
*I *1263:C1 I *D sky130_fd_sc_hd__a211o_1
*I *1262:X O *D sky130_fd_sc_hd__a221o_1
*CAP
1 *1263:C1 0.000181666
2 *1262:X 0.000181666
3 *1263:C1 *132:26 4.10599e-05
4 *1263:C1 *171:81 1.01912e-05
5 *1263:C1 *179:49 1.01912e-05
6 *1262:C1 *1263:C1 6.31429e-05
7 *1263:B1 *1263:C1 2.34423e-05
8 *106:47 *1263:C1 2.62984e-05
9 *110:59 *1263:C1 0.000290724
*RES
1 *1262:X *1263:C1 35.8286 
*END

*D_NET *132 0.00771546
*CONN
*I *1264:C I *D sky130_fd_sc_hd__or3_1
*I *1263:X O *D sky130_fd_sc_hd__a211o_1
*CAP
1 *1264:C 0
2 *1263:X 0.00367552
3 *132:26 0.00367552
4 *132:26 *1262:A1 4.28249e-05
5 *132:26 *171:81 7.8178e-06
6 *132:26 *179:49 9.08283e-05
7 *1262:A2 *132:26 1.41029e-05
8 *1262:C1 *132:26 4.18305e-05
9 *1263:C1 *132:26 4.10599e-05
10 *88:12 *132:26 0.000102503
11 *92:36 *132:26 2.34423e-05
12 *97:35 *132:26 0
*RES
1 *1263:X *132:26 40.8143 
2 *132:26 *1264:C 9.3 
*END

*D_NET *133 0.00152917
*CONN
*I *1266:B1 I *D sky130_fd_sc_hd__a22o_1
*I *1264:X O *D sky130_fd_sc_hd__or3_1
*CAP
1 *1266:B1 0.000544057
2 *1264:X 0.000544057
3 *1266:B1 *1223:A1 0
4 *1266:B1 *1266:B2 0.000117135
5 *1266:B1 *204:63 0.00014576
6 *1223:A2 *1266:B1 0
7 *92:36 *1266:B1 0
8 *97:35 *1266:B1 0.000178163
*RES
1 *1264:X *1266:B1 38.6536 
*END

*D_NET *134 0.000996612
*CONN
*I *1266:B2 I *D sky130_fd_sc_hd__a22o_1
*I *1265:X O *D sky130_fd_sc_hd__o21ba_1
*CAP
1 *1266:B2 0.00031007
2 *1265:X 0.00031007
3 *1266:B2 *1275:B1 0.000182694
4 *1266:B2 *1276:A0 0
5 *1266:B2 *204:63 7.6644e-05
6 *1266:B2 *205:35 0
7 *1266:B1 *1266:B2 0.000117135
*RES
1 *1265:X *1266:B2 33.4393 
*END

*D_NET *135 0.00143772
*CONN
*I *1268:C1 I *D sky130_fd_sc_hd__a221o_1
*I *1267:X O *D sky130_fd_sc_hd__a22o_1
*CAP
1 *1268:C1 0.000176992
2 *1267:X 0.000176992
3 *1268:C1 *1307:A 4.16383e-05
4 *1268:C1 *1311:A1 0.000317082
5 *1268:C1 *146:44 3.98559e-05
6 *1268:C1 *150:6 5.33005e-05
7 *1268:C1 *150:14 0.000121573
8 *1268:B1 *1268:C1 5.52302e-05
9 *1307:B *1268:C1 0.000397911
10 *1475:A *1268:C1 5.71472e-05
*RES
1 *1267:X *1268:C1 34.0107 
*END

*D_NET *136 0.00398287
*CONN
*I *1275:B1 I *D sky130_fd_sc_hd__o22a_1
*I *1268:X O *D sky130_fd_sc_hd__a221o_1
*CAP
1 *1275:B1 0.000802261
2 *1268:X 0.000802261
3 *1275:B1 *1275:B2 1.04232e-05
4 *1275:B1 *1288:A1 1.54142e-05
5 *1275:B1 *1288:S 0.000410731
6 *1275:B1 *146:44 0.000312209
7 *1275:B1 *204:63 1.98839e-05
8 *1275:B1 *204:80 0.000704614
9 *1242:B *1275:B1 3.77138e-05
10 *1243:A2 *1275:B1 3.99614e-06
11 *1266:B2 *1275:B1 0.000182694
12 *1268:A2 *1275:B1 0.000396892
13 *97:52 *1275:B1 0.000283776
*RES
1 *1268:X *1275:B1 37.9393 
*END

*D_NET *137 0.0023135
*CONN
*I *1270:C1 I *D sky130_fd_sc_hd__a221o_1
*I *1269:X O *D sky130_fd_sc_hd__a221o_1
*CAP
1 *1270:C1 0.00047208
2 *1269:X 0.00047208
3 *1270:C1 *1220:A 5.49544e-05
4 *1270:C1 *1221:A_N 6.84822e-05
5 *1270:C1 *1269:C1 0
6 *1270:C1 *1438:A 5.33005e-05
7 *1270:C1 *190:10 9.90431e-05
8 *1270:C1 *201:122 0.000222666
9 *1232:C *1270:C1 2.95726e-05
10 *1269:A2 *1270:C1 1.33343e-05
11 *92:10 *1270:C1 9.58181e-05
12 *101:24 *1270:C1 0.000732166
*RES
1 *1269:X *1270:C1 31.9036 
*END

*D_NET *138 0.00137916
*CONN
*I *1274:B1 I *D sky130_fd_sc_hd__a2111o_1
*I *1270:X O *D sky130_fd_sc_hd__a221o_1
*CAP
1 *1274:B1 0.000396096
2 *1270:X 0.000396096
3 *1274:B1 *1367:RESET_B 0.000456292
4 *1274:B1 *171:125 3.48139e-05
5 *1274:B1 *190:40 3.18676e-05
6 *1274:B1 *207:132 6.39901e-05
7 *118:12 *1274:B1 0
*RES
1 *1270:X *1274:B1 36.4571 
*END

*D_NET *139 0.00218888
*CONN
*I *1274:C1 I *D sky130_fd_sc_hd__a2111o_1
*I *1271:X O *D sky130_fd_sc_hd__a22o_1
*CAP
1 *1274:C1 0.000841806
2 *1271:X 0.000841806
3 *1274:C1 *1262:B2 0
4 *1274:C1 *1271:A1 0
5 *1274:C1 *1271:B2 0
6 *1274:C1 *1331:A0 0
7 *1274:C1 *1340:A0 0
8 *1274:C1 *1395:RESET_B 0.000184745
9 *1274:C1 *171:125 0
10 *1274:C1 *180:37 0
11 *1274:C1 *190:33 4.18749e-05
12 *1274:C1 *190:40 0.000114655
13 *1274:C1 *206:24 0
14 *1274:C1 *207:78 0.000163989
15 *1274:C1 *229:10 0
16 *1411:D *1274:C1 0
*RES
1 *1271:X *1274:C1 43.2964 
*END

*D_NET *140 0.00419998
*CONN
*I *1273:C1 I *D sky130_fd_sc_hd__a221o_1
*I *1272:X O *D sky130_fd_sc_hd__a22o_1
*CAP
1 *1273:C1 0
2 *1272:X 0.00173804
3 *140:12 0.00173804
4 *140:12 *1216:A0 1.02821e-05
5 *140:12 *1303:A0 4.17806e-05
6 *140:12 *1352:RESET_B 3.33083e-05
7 *140:12 *1427:A 0.00013073
8 *140:12 *207:64 8.02307e-05
9 *140:12 *239:8 0.000196968
10 *140:12 *274:12 7.50697e-05
11 *1216:S *140:12 0.000122091
12 *1273:B1 *140:12 3.34366e-05
13 *106:35 *140:12 0
*RES
1 *1272:X *140:12 40.9071 
2 *140:12 *1273:C1 9.3 
*END

*D_NET *141 0.0015921
*CONN
*I *1274:D1 I *D sky130_fd_sc_hd__a2111o_1
*I *1273:X O *D sky130_fd_sc_hd__a221o_1
*CAP
1 *1274:D1 0.000409462
2 *1273:X 0.000409462
3 *1274:D1 *1321:A1 0.0001812
4 *1274:D1 *1367:RESET_B 9.41642e-05
5 *1274:D1 *142:10 9.91086e-05
6 *1274:D1 *171:125 0.000100823
7 *1249:A2 *1274:D1 3.14048e-05
8 *1395:D *1274:D1 0.000266473
*RES
1 *1273:X *1274:D1 36.8679 
*END

*D_NET *142 0.00634068
*CONN
*I *1275:B2 I *D sky130_fd_sc_hd__o22a_1
*I *1274:X O *D sky130_fd_sc_hd__a2111o_1
*CAP
1 *1275:B2 7.66919e-05
2 *1274:X 0.00124787
3 *142:10 0.00132456
4 *142:10 *1270:B2 1.17968e-05
5 *142:10 *1280:A1 0
6 *142:10 *1316:S 6.35892e-05
7 *142:10 *1320:A0 0
8 *142:10 *1320:S 0
9 *142:10 *1321:S 0
10 *142:10 *1367:RESET_B 7.6644e-05
11 *142:10 *169:33 0
12 *142:10 *171:125 0.000636176
13 *142:10 *184:72 0.000100969
14 *142:10 *186:76 7.80714e-06
15 *142:10 *190:40 5.17614e-05
16 *142:10 *205:35 0
17 *142:10 *207:104 0
18 *142:10 *207:132 0.000295512
19 *1219:A2 *142:10 0.00037576
20 *1242:B *1275:B2 0.000318101
21 *1243:A2 *1275:B2 8.90199e-05
22 *1249:A2 *142:10 0.000404775
23 *1270:B1 *142:10 0.000101545
24 *1274:D1 *142:10 9.91086e-05
25 *1275:B1 *1275:B2 1.04232e-05
26 *1362:D *142:10 6.74911e-05
27 *1390:D *142:10 0.000113557
28 *88:42 *142:10 0.000841009
29 *97:52 *1275:B2 2.65105e-05
*RES
1 *1274:X *142:10 47.6571 
2 *142:10 *1275:B2 17.2286 
*END

*D_NET *143 0.000456798
*CONN
*I *1276:A0 I *D sky130_fd_sc_hd__mux2_1
*I *1275:X O *D sky130_fd_sc_hd__o22a_1
*CAP
1 *1276:A0 0.000153866
2 *1275:X 0.000153866
3 *1276:A0 *205:35 0.000138816
4 *1266:B2 *1276:A0 0
5 *97:52 *1276:A0 1.02504e-05
*RES
1 *1275:X *1276:A0 31.0643 
*END

*D_NET *144 0.00763864
*CONN
*I *1281:S I *D sky130_fd_sc_hd__mux2_1
*I *1278:S I *D sky130_fd_sc_hd__mux2_1
*I *1280:S I *D sky130_fd_sc_hd__mux2_1
*I *1279:S I *D sky130_fd_sc_hd__mux2_1
*I *1277:Y O *D sky130_fd_sc_hd__nand2_2
*CAP
1 *1281:S 0.000282609
2 *1278:S 0.000167459
3 *1280:S 6.49288e-05
4 *1279:S 0.000294132
5 *1277:Y 0
6 *144:40 0.000617233
7 *144:29 0.00069838
8 *144:6 0.000760417
9 *1278:S *1243:B1_N 0.000148168
10 *1278:S *1278:A1 5.71472e-05
11 *1278:S *175:193 2.44318e-05
12 *1279:S *1254:A1 0.000175892
13 *1279:S *1277:B 0.000125724
14 *1279:S *1279:A0 0.000175892
15 *1279:S *1314:S 6.42242e-05
16 *1279:S *184:48 0.00021705
17 *1279:S *204:20 0.000221641
18 *1279:S *204:164 0.000129515
19 *1279:S *216:14 4.27935e-05
20 *1280:S *1366:CLK 0.000361914
21 *1280:S *186:76 0.000402777
22 *1281:S *1360:CLK 5.33005e-05
23 *1281:S *195:54 0.000137939
24 *144:29 *1219:B2 0.000152333
25 *144:29 *1313:S 0.000129025
26 *144:29 *1314:S 9.24299e-05
27 *144:29 *1356:CLK 5.41573e-05
28 *144:29 *186:76 0.000225609
29 *144:29 *204:20 0.000522701
30 *144:40 *195:54 0.000227736
31 *144:40 *195:56 0.000171368
32 *144:40 *204:20 7.61164e-05
33 *144:40 *204:24 0
34 *144:40 *204:63 0
35 *1243:A2 *1278:S 0.000706537
36 *1360:D *1281:S 0
37 *1363:D *1281:S 5.70551e-05
*RES
1 *1277:Y *144:6 13.8 
2 *144:6 *1279:S 22.4607 
3 *144:6 *144:29 17.7857 
4 *144:29 *1280:S 13.1214 
5 *144:29 *144:40 9.48214 
6 *144:40 *1278:S 20.4964 
7 *144:40 *1281:S 19.175 
*END

*D_NET *145 0.0112909
*CONN
*I *1283:S I *D sky130_fd_sc_hd__mux2_1
*I *1285:S I *D sky130_fd_sc_hd__mux2_1
*I *1284:S I *D sky130_fd_sc_hd__mux2_1
*I *1286:S I *D sky130_fd_sc_hd__mux2_1
*I *1282:Y O *D sky130_fd_sc_hd__nand2_2
*CAP
1 *1283:S 0.000120537
2 *1285:S 0.00116193
3 *1284:S 9.81847e-05
4 *1286:S 0.000834147
5 *1282:Y 7.40396e-05
6 *145:42 0.00131946
7 *145:20 0.00147577
8 *145:8 0.000654464
9 *1283:S *1283:A0 0.000109809
10 *1283:S *1356:RESET_B 2.1527e-05
11 *1283:S *175:193 0.000263422
12 *1283:S *185:25 0.000183726
13 *1283:S *186:76 0.000183726
14 *1284:S *1284:A1 4.22908e-05
15 *1284:S *174:44 2.89016e-05
16 *1284:S *174:50 4.43256e-05
17 *1285:S *1282:B 1.3277e-05
18 *1285:S *1364:CLK 0.000230616
19 *1285:S *171:135 0.000196908
20 *1286:S *1252:A1 0.000219711
21 *1286:S *1252:D1 1.07719e-05
22 *1286:S *174:50 0.000180777
23 *1286:S *207:132 0.000135028
24 *145:8 *176:12 5.17614e-05
25 *145:20 *1283:A0 3.9838e-05
26 *145:20 *1356:RESET_B 8.12097e-05
27 *145:20 *1365:RESET_B 0.000254337
28 *145:20 *175:193 0.00127009
29 *145:20 *184:109 8.89289e-05
30 *145:20 *212:33 0.00127258
31 *145:42 *1283:A0 3.69697e-05
32 *145:42 *175:193 6.73939e-05
33 *1219:A2 *1285:S 0.000167211
34 *1252:A2 *1286:S 0.000137983
35 *1253:C *1286:S 2.72967e-05
36 *1364:D *1285:S 3.88139e-05
37 *102:29 *1286:S 0.000153131
*RES
1 *1282:Y *145:8 14.7464 
2 *145:8 *145:20 26.2857 
3 *145:20 *1286:S 24.55 
4 *145:20 *1284:S 11.4964 
5 *145:8 *145:42 1.03571 
6 *145:42 *1285:S 29.6929 
7 *145:42 *1283:S 19.0321 
*END

*D_NET *146 0.00816284
*CONN
*I *1291:S I *D sky130_fd_sc_hd__mux2_1
*I *1289:S I *D sky130_fd_sc_hd__mux2_1
*I *1288:S I *D sky130_fd_sc_hd__mux2_1
*I *1290:S I *D sky130_fd_sc_hd__mux2_1
*I *1287:Y O *D sky130_fd_sc_hd__nand2_2
*CAP
1 *1291:S 0
2 *1289:S 0.000417102
3 *1288:S 0.000145253
4 *1290:S 0.000305664
5 *1287:Y 0
6 *146:44 0.00135171
7 *146:19 0.0011516
8 *146:6 0.000377397
9 *1288:S *1288:A1 5.71472e-05
10 *1288:S *168:25 0.000310806
11 *1289:S *1289:A1 1.92789e-05
12 *1289:S *1291:A0 2.59355e-05
13 *1289:S *1305:S 5.52238e-05
14 *1289:S *1306:A0 0.000123288
15 *1289:S *1306:S 0
16 *1289:S *1371:RESET_B 0.000197991
17 *1289:S *1382:RESET_B 0.00022117
18 *1289:S *1386:CLK 0
19 *1289:S *183:28 0.000148903
20 *1289:S *208:68 6.05161e-06
21 *1289:S *214:37 0.000363252
22 *1290:S *1287:B 3.43988e-06
23 *1290:S *1290:A0 1.21258e-05
24 *1290:S *1290:A1 2.89114e-05
25 *1290:S *1368:CLK 0
26 *1290:S *196:77 6.44636e-05
27 *1290:S *204:103 8.23597e-06
28 *146:19 *1287:B 2.78753e-05
29 *146:19 *1301:A0 9.25014e-06
30 *146:19 *168:25 4.37485e-06
31 *146:19 *208:54 5.41794e-05
32 *146:44 *1268:A1 9.20022e-05
33 *146:44 *1301:A0 6.73939e-05
34 *146:44 *1311:A1 0.000386794
35 *146:44 *150:6 0.00014285
36 *146:44 *196:77 1.37292e-05
37 *146:44 *208:62 9.22103e-06
38 *146:44 *208:68 0.000193325
39 *146:44 *266:14 7.78065e-06
40 *1257:C1 *1290:S 0.000519496
41 *1268:A2 *1288:S 9.71197e-05
42 *1268:A2 *1290:S 1.76135e-05
43 *1268:A2 *146:19 7.50505e-05
44 *1268:A2 *146:44 2.74267e-05
45 *1268:B1 *146:44 1.74352e-05
46 *1268:C1 *146:44 3.98559e-05
47 *1275:B1 *1288:S 0.000410731
48 *1275:B1 *146:44 0.000312209
49 *1370:D *1290:S 9.9322e-05
50 *1387:D *146:44 0.00014285
*RES
1 *1287:Y *146:6 13.8 
2 *146:6 *1290:S 21.7107 
3 *146:6 *146:19 1.94643 
4 *146:19 *1288:S 19.4071 
5 *146:19 *146:44 22.6607 
6 *146:44 *1289:S 29.2107 
7 *146:44 *1291:S 9.3 
*END

*D_NET *147 0.00670226
*CONN
*I *1295:S I *D sky130_fd_sc_hd__mux2_1
*I *1296:S I *D sky130_fd_sc_hd__mux2_1
*I *1293:S I *D sky130_fd_sc_hd__mux2_1
*I *1294:S I *D sky130_fd_sc_hd__mux2_1
*I *1292:Y O *D sky130_fd_sc_hd__nand2_2
*CAP
1 *1295:S 0.00034803
2 *1296:S 0.000287508
3 *1293:S 8.65856e-05
4 *1294:S 5.59109e-05
5 *1292:Y 0.000114339
6 *147:40 0.00141319
7 *147:12 0.000388193
8 *147:10 0.00113769
9 *1293:S *1372:RESET_B 0
10 *1294:S *1245:B2 2.84026e-05
11 *1295:S *1295:A0 9.80173e-05
12 *1295:S *1316:A0 0.000180777
13 *1295:S *182:19 3.69865e-05
14 *1295:S *182:29 4.03318e-05
15 *1295:S *182:92 2.19778e-05
16 *1295:S *208:31 0
17 *1296:S *1296:A0 0
18 *1296:S *160:29 0.000187996
19 *1296:S *182:10 0
20 *1296:S *182:19 0.000100152
21 *1296:S *202:8 0
22 *1296:S *208:31 0
23 *147:10 *1222:C 1.41029e-05
24 *147:10 *1230:B2 0
25 *147:10 *1292:A 0.000170646
26 *147:12 *1245:A1 9.76435e-06
27 *147:12 *1245:B2 1.98839e-05
28 *147:12 *1293:A0 0.000482179
29 *147:40 *1293:A0 0.000186669
30 *147:40 *1299:A0 2.88018e-06
31 *147:40 *1309:A1 0.000153273
32 *147:40 *1374:CLK 9.05615e-05
33 *147:40 *1374:RESET_B 2.52796e-05
34 *147:40 *173:101 4.70078e-05
35 *1245:B1 *1293:S 0.000148189
36 *1245:B1 *147:12 0.000139208
37 *1247:C1 *147:12 0.000356022
38 *1247:C1 *147:40 0.000258915
39 *1373:D *1294:S 0
40 *1374:D *1295:S 7.15962e-05
*RES
1 *1292:Y *147:10 20.8536 
2 *147:10 *147:12 6.69643 
3 *147:12 *1294:S 10.2643 
4 *147:12 *1293:S 20.2464 
5 *147:10 *147:40 16.2679 
6 *147:40 *1296:S 20.3 
7 *147:40 *1295:S 21.4964 
*END

*D_NET *148 0.00583322
*CONN
*I *1298:S I *D sky130_fd_sc_hd__mux2_1
*I *1301:S I *D sky130_fd_sc_hd__mux2_1
*I *1300:S I *D sky130_fd_sc_hd__mux2_1
*I *1299:S I *D sky130_fd_sc_hd__mux2_1
*I *1297:Y O *D sky130_fd_sc_hd__nand2_2
*CAP
1 *1298:S 0.000155666
2 *1301:S 0.000325454
3 *1300:S 0.000176699
4 *1299:S 0.000114806
5 *1297:Y 0
6 *148:32 0.000768006
7 *148:14 0.000683185
8 *148:6 0.000678567
9 *1298:S *1298:A0 1.92905e-05
10 *1298:S *1298:A1 2.27416e-05
11 *1298:S *195:12 0.000142856
12 *1299:S *176:28 0.000360894
13 *1299:S *196:77 5.52238e-05
14 *1300:S *1300:A1 3.18676e-05
15 *1300:S *172:67 5.33433e-05
16 *1300:S *176:28 0.000255055
17 *1300:S *196:77 5.33005e-05
18 *1300:S *196:90 0.000169359
19 *1301:S *1268:A1 5.83304e-05
20 *1301:S *1301:A1 0.000119618
21 *1301:S *195:12 5.52238e-05
22 *1301:S *196:62 0.000181192
23 *1301:S *196:77 2.89016e-05
24 *1301:S *258:8 0.000102207
25 *148:14 *182:92 0
26 *148:14 *194:10 0.000154762
27 *148:14 *196:77 0.000414376
28 *148:14 *208:54 0.000234705
29 *148:32 *1298:A0 0
30 *148:32 *1301:A0 0
31 *148:32 *1368:RESET_B 0
32 *148:32 *196:77 0.000253738
33 *148:32 *208:54 3.56976e-05
34 *148:32 *255:16 0
35 *1368:D *148:32 0.000128154
*RES
1 *1297:Y *148:6 13.8 
2 *148:6 *148:14 15.9107 
3 *148:14 *1299:S 12.7107 
4 *148:14 *1300:S 13.9429 
5 *148:6 *148:32 11.6071 
6 *148:32 *1301:S 26.425 
7 *148:32 *1298:S 12.7107 
*END

*D_NET *149 0.00745507
*CONN
*I *1306:S I *D sky130_fd_sc_hd__mux2_1
*I *1305:S I *D sky130_fd_sc_hd__mux2_1
*I *1303:S I *D sky130_fd_sc_hd__mux2_1
*I *1304:S I *D sky130_fd_sc_hd__mux2_1
*I *1302:Y O *D sky130_fd_sc_hd__nand2_2
*CAP
1 *1306:S 0.00028103
2 *1305:S 0.000506775
3 *1303:S 0
4 *1304:S 0.000644418
5 *1302:Y 3.96549e-05
6 *149:24 0.00163565
7 *149:10 0.00158066
8 *149:8 0.000403345
9 *1304:S *1236:C 0
10 *1304:S *1247:A1 0.000519487
11 *1304:S *1304:A1 5.52238e-05
12 *1304:S *1445:A 0.000225988
13 *1304:S *214:37 0.000382098
14 *1305:S *1289:A0 4.7812e-05
15 *1305:S *1289:A1 2.343e-05
16 *1305:S *1305:A0 8.98941e-05
17 *1305:S *1305:A1 5.33334e-05
18 *1306:S *1302:A 2.09266e-05
19 *1306:S *1386:CLK 6.33337e-05
20 *1306:S *204:105 0
21 *149:8 *1302:A 5.49489e-05
22 *149:24 *1222:B 1.20084e-05
23 *149:24 *1222:D_N 0.000203517
24 *149:24 *1293:A0 0.000111808
25 *149:24 *1445:A 4.33899e-05
26 *149:24 *200:50 0.000171954
27 *149:24 *201:50 1.30594e-05
28 *149:24 *214:37 1.6116e-05
29 *1267:B1 *1306:S 0
30 *1289:S *1305:S 5.52238e-05
31 *1289:S *1306:S 0
32 *1302:B *1306:S 2.11419e-05
33 *1386:D *1306:S 0.000100639
34 *93:14 *149:24 7.82058e-05
*RES
1 *1302:Y *149:8 14.3357 
2 *149:8 *149:10 1.33929 
3 *149:10 *149:24 22.1786 
4 *149:24 *1304:S 31.8714 
5 *149:24 *1303:S 9.3 
6 *149:10 *1305:S 22.1571 
7 *149:8 *1306:S 19.3893 
*END

*D_NET *150 0.00369657
*CONN
*I *1311:S I *D sky130_fd_sc_hd__mux2_1
*I *1310:S I *D sky130_fd_sc_hd__mux2_1
*I *1308:S I *D sky130_fd_sc_hd__mux2_1
*I *1309:S I *D sky130_fd_sc_hd__mux2_1
*I *1307:Y O *D sky130_fd_sc_hd__nand2_1
*CAP
1 *1311:S 0
2 *1310:S 3.72192e-05
3 *1308:S 2.04425e-05
4 *1309:S 0.000190219
5 *1307:Y 2.87947e-05
6 *150:18 0.000442145
7 *150:14 0.000810563
8 *150:6 0.000570656
9 *1308:S *176:28 5.33005e-05
10 *1308:S *182:47 2.59355e-05
11 *1309:S *1230:B2 0.000126591
12 *1309:S *1299:A0 8.89111e-05
13 *1309:S *1309:A1 4.22908e-05
14 *1309:S *182:47 0.00022117
15 *1309:S *264:8 9.10431e-06
16 *1310:S *172:35 5.7661e-06
17 *1310:S *172:50 6.46481e-05
18 *150:6 *208:68 1.74352e-05
19 *150:14 *1307:A 0
20 *150:14 *1310:A1 0
21 *150:14 *172:35 0.000230482
22 *150:14 *172:50 2.14658e-05
23 *150:14 *183:12 3.92854e-05
24 *150:14 *183:61 0
25 *150:14 *250:10 0
26 *150:18 *1230:B2 2.1527e-05
27 *150:18 *182:47 5.66157e-05
28 *150:18 *191:90 2.18733e-05
29 *1268:C1 *150:6 5.33005e-05
30 *1268:C1 *150:14 0.000121573
31 *1307:B *150:6 2.28499e-05
32 *1377:D *150:18 5.33882e-05
33 *93:29 *150:14 0.00015617
34 *93:29 *150:18 0
35 *100:42 *150:18 0
36 *100:50 *150:14 0
37 *146:44 *150:6 0.00014285
*RES
1 *1307:Y *150:6 10.6571 
2 *150:6 *150:14 19.6071 
3 *150:14 *150:18 9.17857 
4 *150:18 *1309:S 19.5679 
5 *150:18 *1308:S 14.3357 
6 *150:14 *1310:S 10.2643 
7 *150:6 *1311:S 9.3 
*END

*D_NET *151 0.00450326
*CONN
*I *1313:S I *D sky130_fd_sc_hd__mux2_1
*I *1314:S I *D sky130_fd_sc_hd__mux2_1
*I *1315:S I *D sky130_fd_sc_hd__mux2_1
*I *1316:S I *D sky130_fd_sc_hd__mux2_1
*I *1312:Y O *D sky130_fd_sc_hd__nand2_1
*CAP
1 *1313:S 0.000104203
2 *1314:S 0.000173777
3 *1315:S 0
4 *1316:S 0.000187297
5 *1312:Y 0
6 *151:32 0.000935309
7 *151:8 0.000281774
8 *151:4 0.000751806
9 *1313:S *1356:CLK 0.000208776
10 *1313:S *194:45 5.66157e-05
11 *1314:S *1250:A1 1.02504e-05
12 *1314:S *1277:B 3.76508e-05
13 *1314:S *1393:CLK 1.02504e-05
14 *1314:S *194:45 0.000117896
15 *1314:S *194:47 0.000236092
16 *1314:S *194:49 0.000140361
17 *1314:S *268:10 0.000128146
18 *1316:S *1315:A0 1.08359e-05
19 *1316:S *1316:A0 5.71472e-05
20 *1316:S *1316:A1 1.92789e-05
21 *1316:S *1320:A0 0
22 *151:32 *1388:CLK 0.000268692
23 *151:32 *194:43 0.000178874
24 *151:32 *205:25 2.13481e-06
25 *151:32 *205:35 8.25843e-06
26 *1279:S *1314:S 6.42242e-05
27 *1390:D *1316:S 3.34366e-05
28 *88:27 *1316:S 5.52302e-05
29 *88:27 *151:8 9.90367e-05
30 *88:36 *151:8 4.08637e-05
31 *142:10 *1316:S 6.35892e-05
32 *144:29 *1313:S 0.000129025
33 *144:29 *1314:S 9.24299e-05
*RES
1 *1312:Y *151:4 9.3 
2 *151:4 *151:8 2.08929 
3 *151:8 *1316:S 22.4429 
4 *151:8 *1315:S 9.3 
5 *151:4 *151:32 13.25 
6 *151:32 *1314:S 20.3 
7 *151:32 *1313:S 17.2643 
*END

*D_NET *152 0.00562909
*CONN
*I *1319:S I *D sky130_fd_sc_hd__mux2_1
*I *1320:S I *D sky130_fd_sc_hd__mux2_1
*I *1321:S I *D sky130_fd_sc_hd__mux2_1
*I *1318:S I *D sky130_fd_sc_hd__mux2_1
*I *1317:Y O *D sky130_fd_sc_hd__nand2_2
*CAP
1 *1319:S 0
2 *1320:S 0.00054224
3 *1321:S 0.00024042
4 *1318:S 0.000196316
5 *1317:Y 5.65133e-05
6 *152:29 0.00120472
7 *152:25 0.000763332
8 *152:8 0.000594097
9 *1318:S *1252:A1 0.000362538
10 *1318:S *175:50 0.000186304
11 *1318:S *175:64 7.90803e-05
12 *1318:S *180:25 7.02611e-05
13 *1320:S *1270:B2 7.26935e-05
14 *1320:S *169:12 0
15 *1320:S *184:72 6.95112e-05
16 *1320:S *190:10 0
17 *1321:S *1270:B2 1.78353e-05
18 *1321:S *1286:A1 5.85801e-05
19 *1321:S *190:16 0
20 *1321:S *207:104 3.10821e-05
21 *1321:S *207:117 2.56601e-05
22 *152:25 *1252:A1 0.00016284
23 *152:25 *1252:D1 0.000126439
24 *152:25 *1319:A0 7.02611e-05
25 *152:25 *1365:CLK 0
26 *152:29 *246:8 0.000197078
27 *1249:A2 *1321:S 0
28 *1249:A2 *152:8 1.39726e-05
29 *1252:A2 *1318:S 4.75812e-05
30 *1252:A2 *152:25 4.43142e-05
31 *1252:B1 *152:25 1.01912e-05
32 *1252:C1 *152:25 0.00012501
33 *1253:C *152:25 0.000126439
34 *1317:B *152:8 2.28598e-05
35 *1367:D *1321:S 0
36 *1391:D *1320:S 0
37 *89:25 *152:29 6.28241e-05
38 *102:37 *152:8 1.24368e-05
39 *112:12 *152:25 3.56515e-05
40 *142:10 *1320:S 0
41 *142:10 *1321:S 0
*RES
1 *1317:Y *152:8 14.7464 
2 *152:8 *1318:S 19.8357 
3 *152:8 *152:25 12.375 
4 *152:25 *152:29 12.0179 
5 *152:29 *1321:S 18.7821 
6 *152:29 *1320:S 23.6393 
7 *152:25 *1319:S 9.3 
*END

*D_NET *153 0.0058665
*CONN
*I *1324:S I *D sky130_fd_sc_hd__mux2_1
*I *1326:S I *D sky130_fd_sc_hd__mux2_1
*I *1325:S I *D sky130_fd_sc_hd__mux2_1
*I *1323:S I *D sky130_fd_sc_hd__mux2_1
*I *1322:Y O *D sky130_fd_sc_hd__nand2_2
*CAP
1 *1324:S 0.000564697
2 *1326:S 9.69304e-05
3 *1325:S 0.000485624
4 *1323:S 0.000151376
5 *1322:Y 0
6 *153:42 0.00111646
7 *153:12 0.000843428
8 *153:6 0.000661258
9 *1323:S *1323:A0 9.77414e-05
10 *1323:S *214:18 6.5185e-05
11 *1324:S *1326:A1 4.93285e-05
12 *1324:S *214:37 0.000359568
13 *1325:S *187:29 4.51228e-05
14 *1325:S *187:42 4.61914e-05
15 *1326:S *188:47 7.57394e-05
16 *153:12 *1322:A 0
17 *153:12 *1398:RESET_B 0
18 *153:12 *1416:CLK 0
19 *153:12 *214:18 0.000181916
20 *153:12 *214:37 3.34366e-05
21 *153:42 *1322:A 0
22 *153:42 *1326:A1 1.62621e-05
23 *153:42 *1348:A0 1.73182e-05
24 *153:42 *214:37 0.000759566
25 *1396:D *153:12 0
26 *1416:D *153:42 0.000103267
27 *107:18 *1324:S 9.60875e-05
*RES
1 *1322:Y *153:6 13.8 
2 *153:6 *153:12 4.125 
3 *153:12 *1323:S 16.8 
4 *153:12 *1325:S 20.1214 
5 *153:6 *153:42 10.8036 
6 *153:42 *1326:S 15.5857 
7 *153:42 *1324:S 25.175 
*END

*D_NET *154 0.00499275
*CONN
*I *1331:S I *D sky130_fd_sc_hd__mux2_1
*I *1328:S I *D sky130_fd_sc_hd__mux2_1
*I *1330:S I *D sky130_fd_sc_hd__mux2_1
*I *1329:S I *D sky130_fd_sc_hd__mux2_1
*I *1327:Y O *D sky130_fd_sc_hd__nand2_1
*CAP
1 *1331:S 0.000627203
2 *1328:S 0
3 *1330:S 0.000617804
4 *1329:S 8.55334e-05
5 *1327:Y 1.76528e-05
6 *154:21 0.000675193
7 *154:19 0.000867781
8 *154:6 0.000286374
9 *1330:S *1328:A0 1.41029e-05
10 *1330:S *1328:A1 1.02504e-05
11 *1331:S *189:69 0.000421623
12 *1331:S *219:8 2.59355e-05
13 *154:6 *156:16 1.21289e-05
14 *154:6 *206:115 7.43578e-06
15 *154:19 *1234:B2 0.000363245
16 *154:19 *1328:A1 4.73656e-05
17 *154:19 *1400:RESET_B 0
18 *154:19 *1424:A 0
19 *154:19 *1426:A 8.27403e-05
20 *154:19 *212:33 0
21 *154:21 *1328:A1 0.000115474
22 *154:21 *1426:A 3.34672e-05
23 *1327:B *1329:S 8.27532e-05
24 *1327:B *154:6 3.52966e-05
25 *1337:B *1329:S 0.000225609
26 *1337:B *154:6 8.66063e-05
27 *1402:D *1330:S 7.50473e-05
28 *104:40 *1329:S 0.000176129
*RES
1 *1327:Y *154:6 10.2464 
2 *154:6 *1329:S 12.3179 
3 *154:6 *154:19 9.78571 
4 *154:19 *154:21 1.64286 
5 *154:21 *1330:S 24.9964 
6 *154:21 *1328:S 13.8 
7 *154:19 *1331:S 23.4071 
*END

*D_NET *155 0.00821032
*CONN
*I *1336:S I *D sky130_fd_sc_hd__mux2_1
*I *1335:S I *D sky130_fd_sc_hd__mux2_1
*I *1334:S I *D sky130_fd_sc_hd__mux2_1
*I *1333:S I *D sky130_fd_sc_hd__mux2_1
*I *1332:Y O *D sky130_fd_sc_hd__nand2_2
*CAP
1 *1336:S 0.000532613
2 *1335:S 0
3 *1334:S 0.000153582
4 *1333:S 0.000377162
5 *1332:Y 2.13449e-05
6 *155:44 0.00195614
7 *155:10 0.000713414
8 *155:6 0.00162754
9 *1333:S *1333:A1 5.52302e-05
10 *1333:S *1342:A 6.55721e-05
11 *1333:S *175:76 0.000102081
12 *1333:S *177:62 8.07951e-05
13 *1333:S *177:76 0.000288564
14 *1333:S *187:78 0
15 *1333:S *207:18 0
16 *1334:S *173:12 8.00622e-05
17 *1334:S *173:22 6.05161e-06
18 *1334:S *175:70 4.25809e-05
19 *1334:S *175:76 3.52228e-05
20 *1336:S *1260:A1 0
21 *1336:S *1271:B2 0
22 *1336:S *1336:A0 0.00026703
23 *1336:S *1336:A1 0
24 *1336:S *171:38 0
25 *1336:S *171:40 0
26 *1336:S *179:16 0.000140933
27 *155:6 *206:44 5.04841e-06
28 *155:10 *206:34 1.98839e-05
29 *155:10 *206:36 1.98839e-05
30 *155:10 *206:44 0.000135028
31 *155:44 *1354:CLK 5.06983e-05
32 *155:44 *171:38 5.58941e-05
33 *155:44 *171:81 0.000263656
34 *155:44 *206:34 0.00027323
35 *1240:A2 *1333:S 0.000123288
36 *1240:A2 *1334:S 0.000248706
37 *1260:A2 *1336:S 0.00014285
38 *1260:A2 *155:44 0
39 *1262:B1 *155:44 3.0285e-05
40 *1262:C1 *155:44 0.000108251
41 *104:12 *155:44 0
42 *106:47 *155:44 1.13406e-05
43 *110:10 *1334:S 1.08359e-05
44 *110:14 *1333:S 3.67548e-05
45 *111:26 *155:44 0.000128774
*RES
1 *1332:Y *155:6 9.72857 
2 *155:6 *155:10 6.67857 
3 *155:10 *1333:S 22.2821 
4 *155:10 *1334:S 18.0321 
5 *155:6 *155:44 28.3929 
6 *155:44 *1335:S 9.3 
7 *155:44 *1336:S 29.4964 
*END

*D_NET *156 0.00704747
*CONN
*I *1338:S I *D sky130_fd_sc_hd__mux2_1
*I *1339:S I *D sky130_fd_sc_hd__mux2_1
*I *1341:S I *D sky130_fd_sc_hd__mux2_1
*I *1340:S I *D sky130_fd_sc_hd__mux2_1
*I *1337:Y O *D sky130_fd_sc_hd__nand2_2
*CAP
1 *1338:S 0.00035932
2 *1339:S 0.000482073
3 *1341:S 0
4 *1340:S 3.12152e-05
5 *1337:Y 0
6 *156:29 0.000707376
7 *156:16 0.000734208
8 *156:4 0.00083701
9 *1338:S *1338:A0 0.000272371
10 *1338:S *175:29 0.000172734
11 *1338:S *206:115 9.07572e-05
12 *1338:S *220:8 0.000114828
13 *1339:S *1339:A1 9.60939e-05
14 *1339:S *1452:A 0.000224105
15 *1339:S *175:64 0.000496194
16 *1339:S *206:24 0.000432883
17 *156:16 *1329:A1 5.33005e-05
18 *156:16 *1337:A 5.71472e-05
19 *156:16 *1340:A0 0
20 *156:16 *1401:CLK 9.71197e-05
21 *156:16 *189:88 8.15939e-05
22 *156:16 *206:115 5.52302e-05
23 *156:29 *1331:A0 0.000107007
24 *156:29 *1341:A1 1.02504e-05
25 *156:29 *206:24 0
26 *156:29 *207:78 2.37761e-05
27 *1241:C1 *1340:S 9.90367e-05
28 *1241:C1 *156:16 0.000186437
29 *1249:B1 *1339:S 0.000186379
30 *1327:B *156:16 9.85067e-05
31 *1337:B *156:16 5.35516e-05
32 *1401:D *156:16 0.000138881
33 *1408:D *1338:S 0.000226088
34 *1410:D *156:29 0.000125724
35 *104:40 *156:16 0.000211607
36 *118:12 *1339:S 0.000172536
37 *118:12 *156:29 0
38 *154:6 *156:16 1.21289e-05
*RES
1 *1337:Y *156:4 9.3 
2 *156:4 *156:16 20.6607 
3 *156:16 *1340:S 10.2464 
4 *156:16 *156:29 13.9821 
5 *156:29 *1341:S 9.3 
6 *156:29 *1339:S 23.55 
7 *156:4 *1338:S 28.2286 
*END

*D_NET *157 0.00387864
*CONN
*I *1344:S I *D sky130_fd_sc_hd__mux2_1
*I *1346:S I *D sky130_fd_sc_hd__mux2_1
*I *1345:S I *D sky130_fd_sc_hd__mux2_1
*I *1343:S I *D sky130_fd_sc_hd__mux2_1
*I *1342:Y O *D sky130_fd_sc_hd__nand2_1
*CAP
1 *1344:S 9.62835e-06
2 *1346:S 0
3 *1345:S 3.62326e-05
4 *1343:S 0.000376924
5 *1342:Y 0.000105304
6 *157:14 0.000598989
7 *157:10 0.000270145
8 *157:6 0.000199244
9 *1344:S *171:36 5.52302e-05
10 *157:6 *171:36 0.000659763
11 *157:10 *1269:B2 0.000195555
12 *157:10 *160:14 3.51442e-05
13 *157:10 *177:116 9.09249e-05
14 *157:10 *234:10 2.48938e-05
15 *157:14 *160:14 0.000387425
16 *157:14 *234:10 0.000150618
17 *1237:A2 *157:6 2.28499e-05
18 *106:60 *1344:S 4.27935e-05
19 *106:60 *157:6 0.000616976
*RES
1 *1342:Y *157:6 15.5857 
2 *157:6 *157:10 7.35714 
3 *157:10 *157:14 9.48214 
4 *157:14 *1343:S 15.5857 
5 *157:14 *1345:S 9.83571 
6 *157:10 *1346:S 13.8 
7 *157:6 *1344:S 9.83571 
*END

*D_NET *158 0.00352237
*CONN
*I *1348:S I *D sky130_fd_sc_hd__mux2_1
*I *1351:S I *D sky130_fd_sc_hd__mux2_1
*I *1349:S I *D sky130_fd_sc_hd__mux2_1
*I *1350:S I *D sky130_fd_sc_hd__mux2_1
*I *1347:Y O *D sky130_fd_sc_hd__nand2_1
*CAP
1 *1348:S 1.97835e-05
2 *1351:S 0.000105392
3 *1349:S 0.000228851
4 *1350:S 0.000189045
5 *1347:Y 0
6 *158:30 0.000267632
7 *158:8 0.00091407
8 *158:4 0.00063863
9 *1348:S *1348:A0 9.71197e-05
10 *1348:S *206:44 8.46829e-05
11 *1349:S *1349:A1 3.34366e-05
12 *1349:S *1419:CLK 0
13 *1349:S *1419:RESET_B 0
14 *1349:S *173:22 2.15363e-05
15 *1349:S *173:33 4.48583e-05
16 *1349:S *178:47 0
17 *1350:S *1261:A1 0
18 *1350:S *1350:A0 3.34295e-05
19 *1350:S *1350:A1 6.42242e-05
20 *1350:S *1418:RESET_B 0
21 *1351:S *1348:A0 1.41642e-05
22 *158:8 *1261:B2 0.000106467
23 *158:8 *1350:A1 3.69047e-06
24 *158:8 *1418:RESET_B 2.24763e-05
25 *158:30 *1347:A 0.000180951
26 *158:30 *1348:A0 9.66977e-05
27 *158:30 *206:44 5.33005e-05
28 *1261:A2 *158:8 5.74499e-06
29 *1261:A2 *158:30 2.12087e-05
30 *1261:B1 *158:8 0.000147225
31 *1261:B1 *158:30 5.38444e-06
32 *1347:B *158:8 1.21258e-05
33 *107:26 *1351:S 5.31234e-05
34 *109:29 *1351:S 5.7119e-05
*RES
1 *1347:Y *158:4 9.3 
2 *158:4 *158:8 11.1964 
3 *158:8 *1350:S 17.2643 
4 *158:8 *1349:S 18.175 
5 *158:4 *158:30 3.32143 
6 *158:30 *1351:S 20.55 
7 *158:30 *1348:S 10.2464 
*END

*D_NET *159 0.00553315
*CONN
*I *1456:A I *D sky130_fd_sc_hd__buf_1
*I *1455:A I *D sky130_fd_sc_hd__clkbuf_2
*I *1457:X O *D sky130_fd_sc_hd__buf_1
*CAP
1 *1456:A 0.00102226
2 *1455:A 0.000479172
3 *1457:X 4.00453e-05
4 *159:6 0.00154148
5 *1455:A *1435:A 0
6 *1455:A *1447:A 0.000115369
7 *1455:A *188:14 0.000105518
8 *1455:A *188:16 2.28541e-05
9 *1455:A *192:12 0.000150625
10 *1455:A *196:26 0
11 *1456:A *1222:A 0.000114097
12 *1456:A *1222:C 0.000225609
13 *1456:A *1251:B2 0
14 *1456:A *1293:A0 0.000163607
15 *1456:A *1449:A 0.00137175
16 *1372:D *1456:A 0.000105104
17 *1381:D *1455:A 4.48206e-05
18 *1457:A *1455:A 2.49459e-05
19 *1460:A *1455:A 5.90443e-06
20 *1462:A *1455:A 0
*RES
1 *1457:X *159:6 9.83571 
2 *159:6 *1455:A 28.7464 
3 *159:6 *1456:A 32.3357 
*END

*D_NET *160 0.00858413
*CONN
*I *1454:A I *D sky130_fd_sc_hd__dlymetal6s2s_1
*I *1453:A I *D sky130_fd_sc_hd__buf_2
*I *1458:X O *D sky130_fd_sc_hd__buf_1
*CAP
1 *1454:A 0
2 *1453:A 0
3 *1458:X 0.001458
4 *160:29 0.00145468
5 *160:14 0.00291268
6 *160:14 *1345:A1 7.38652e-05
7 *160:14 *1407:CLK 0
8 *160:14 *177:24 5.41794e-05
9 *160:14 *177:116 0.000142082
10 *160:14 *207:8 9.41642e-05
11 *160:29 *1233:B_N 2.08977e-05
12 *160:29 *1248:B2 0.000171847
13 *160:29 *1260:B2 0.000168939
14 *160:29 *1269:B2 0
15 *160:29 *1296:A0 0
16 *160:29 *1344:A1 0.000101094
17 *160:29 *1353:RESET_B 0.000202762
18 *160:29 *1437:A 0.00034555
19 *160:29 *177:116 0.000120485
20 *160:29 *189:8 5.57914e-05
21 *160:29 *189:21 0
22 *160:29 *189:27 0
23 *160:29 *199:19 0
24 *160:29 *207:8 5.33005e-05
25 *160:29 *209:106 0.000407474
26 *1216:S *160:29 0
27 *1251:A2 *160:29 9.90431e-05
28 *1296:S *160:29 0.000187996
29 *86:25 *160:29 0
30 *86:27 *160:29 0
31 *86:37 *160:29 0
32 *121:14 *160:29 3.67257e-05
33 *157:10 *160:14 3.51442e-05
34 *157:14 *160:14 0.000387425
*RES
1 *1458:X *160:14 39.7286 
2 *160:14 *1453:A 9.3 
3 *160:14 *160:29 41.875 
4 *160:29 *1454:A 9.3 
*END

*D_NET *161 0.00153781
*CONN
*I *1452:A I *D sky130_fd_sc_hd__clkbuf_4
*I *1459:X O *D sky130_fd_sc_hd__clkbuf_1
*CAP
1 *1452:A 0.000406683
2 *1459:X 0.000406683
3 *1452:A *1329:A0 2.59355e-05
4 *1452:A *1339:A1 9.80173e-05
5 *1452:A *1423:A 9.34004e-05
6 *1452:A *174:12 0.000225903
7 *1452:A *228:8 5.70797e-05
8 *1339:S *1452:A 0.000224105
*RES
1 *1459:X *1452:A 36.6714 
*END

*D_NET *162 0.0019891
*CONN
*I *1471:A I *D sky130_fd_sc_hd__buf_2
*I *1244:A2 I *D sky130_fd_sc_hd__a22o_1
*I *1356:Q O *D sky130_fd_sc_hd__dfrtp_1
*CAP
1 *1471:A 0.000128899
2 *1244:A2 0.000736105
3 *1356:Q 0
4 *162:4 0.000865004
5 *1471:A *1243:B1_N 0
6 rdata[0] *1471:A 2.56694e-05
7 *1244:B2 *1244:A2 0.000233424
8 *1244:B2 *1471:A 0
*RES
1 *1356:Q *162:4 9.3 
2 *162:4 *1244:A2 19.3179 
3 *162:4 *1471:A 20.4786 
*END

*D_NET *163 0.00152039
*CONN
*I *1472:A I *D sky130_fd_sc_hd__buf_2
*I *1255:A2 I *D sky130_fd_sc_hd__a22o_1
*I *1357:Q O *D sky130_fd_sc_hd__dfrtp_1
*CAP
1 *1472:A 0.000159848
2 *1255:A2 0.000180581
3 *1357:Q 0.000158328
4 *163:8 0.000498757
5 *1255:A2 *186:66 5.31638e-05
6 *1472:A *186:66 7.57869e-05
7 rdata[1] *1255:A2 0.000144959
8 rdata[1] *1472:A 9.5923e-05
9 *1357:D *1255:A2 0.000153047
*RES
1 *1357:Q *163:8 15.5679 
2 *163:8 *1255:A2 18.3179 
3 *163:8 *1472:A 17.1036 
*END

*D_NET *164 0.00113108
*CONN
*I *1473:A I *D sky130_fd_sc_hd__buf_2
*I *1266:A2 I *D sky130_fd_sc_hd__a22o_1
*I *1358:Q O *D sky130_fd_sc_hd__dfrtp_1
*CAP
1 *1473:A 0.000208392
2 *1266:A2 0.000316479
3 *1358:Q 0
4 *164:6 0.000524871
5 *1266:A2 *1266:A1 8.1334e-05
6 *1266:A2 *1276:S 0
7 *1359:D *1266:A2 0
*RES
1 *1358:Q *164:6 13.8 
2 *164:6 *1266:A2 19.6929 
3 *164:6 *1473:A 17.2107 
*END

*D_NET *165 0.0020961
*CONN
*I *1474:A I *D sky130_fd_sc_hd__buf_2
*I *1276:A1 I *D sky130_fd_sc_hd__mux2_1
*I *1359:Q O *D sky130_fd_sc_hd__dfrtp_1
*CAP
1 *1474:A 0.000334249
2 *1276:A1 0.000466038
3 *1359:Q 0
4 *165:6 0.000800287
5 *1276:A1 *1363:RESET_B 2.58856e-05
6 *1276:A1 *185:77 0.000126439
7 *1276:A1 *195:46 0
8 *1276:A1 *205:35 0.00014285
9 *1474:A *185:77 0.000119618
10 *1474:A *195:46 0
11 *1359:D *1276:A1 8.07313e-05
*RES
1 *1359:Q *165:6 13.8 
2 *165:6 *1276:A1 22.9607 
3 *165:6 *1474:A 19.9607 
*END

*D_NET *166 0.00637185
*CONN
*I *1277:B I *D sky130_fd_sc_hd__nand2_2
*I *1252:D1 I *D sky130_fd_sc_hd__a2111o_1
*I *1468:X O *D sky130_fd_sc_hd__buf_1
*CAP
1 *1277:B 0.000250508
2 *1252:D1 0.000365332
3 *1468:X 0.000635399
4 *166:10 0.00125124
5 *1252:D1 *1250:A1 0.000171375
6 *1252:D1 *1365:CLK 4.57445e-05
7 *1252:D1 *1393:CLK 7.7674e-05
8 *1252:D1 *206:140 0
9 *1277:B *1250:A1 9.25014e-06
10 *1277:B *1391:RESET_B 4.60051e-05
11 *1277:B *204:20 0.000101545
12 *1277:B *205:6 5.33005e-05
13 *1277:B *205:19 3.32731e-05
14 *1277:B *268:10 0.00011891
15 *166:10 *1314:A0 6.05161e-06
16 *166:10 *1391:RESET_B 0.000692491
17 *166:10 *1438:A 0.000158447
18 *166:10 *184:72 4.35436e-05
19 *1251:A2 *166:10 9.68931e-05
20 *1253:C *1252:D1 0.000115424
21 *1279:S *1277:B 0.000125724
22 *1286:S *1252:D1 1.07719e-05
23 *1314:S *1277:B 3.76508e-05
24 *1393:D *1252:D1 0.000100831
25 *112:12 *1277:B 2.59795e-05
26 *121:14 *1252:D1 0.000267807
27 *121:14 *1277:B 2.24646e-05
28 *121:14 *166:10 0.00138178
29 *152:25 *1252:D1 0.000126439
*RES
1 *1468:X *166:10 34.0679 
2 *166:10 *1252:D1 23.5679 
3 *166:10 *1277:B 20.2107 
*END

*D_NET *167 0.00452072
*CONN
*I *1468:A I *D sky130_fd_sc_hd__buf_1
*I *1258:C1 I *D sky130_fd_sc_hd__a221o_1
*I *1269:C1 I *D sky130_fd_sc_hd__a221o_1
*I *1469:X O *D sky130_fd_sc_hd__buf_1
*CAP
1 *1468:A 3.60559e-05
2 *1258:C1 0.000428596
3 *1269:C1 6.04602e-05
4 *1469:X 0.000281831
5 *167:31 0.000687744
6 *167:10 0.000565383
7 *1258:C1 *1258:A1 0.000227532
8 *1258:C1 *1258:B2 6.26774e-06
9 *1258:C1 *1316:A0 3.35579e-05
10 *1258:C1 *186:91 0.000143044
11 *1258:C1 *253:10 8.00806e-05
12 *1269:C1 *1269:B2 4.57094e-05
13 *1269:C1 *1296:A0 9.90431e-05
14 *1269:C1 *1296:A1 1.00926e-05
15 *167:10 *1427:A 5.51502e-05
16 *167:10 *1437:A 1.69115e-05
17 *167:10 *197:120 9.60939e-05
18 *167:10 *209:98 4.87854e-05
19 *167:10 *209:126 3.97677e-05
20 *167:10 *254:12 3.34295e-05
21 *167:31 *1296:A0 0.000226907
22 *167:31 *1427:A 2.72545e-05
23 *167:31 *1437:A 4.038e-06
24 *167:31 *186:91 0.000157015
25 *167:31 *196:90 5.59013e-05
26 *167:31 *254:12 0.000148911
27 *1251:A2 *1468:A 0.000128496
28 *1251:A2 *167:31 0.000139907
29 *1258:A2 *1258:C1 0.000340781
30 *1258:B1 *1258:C1 5.52238e-05
31 *1269:B1 *1269:C1 2.59355e-05
32 *1269:B1 *167:10 9.91086e-05
33 *1270:C1 *1269:C1 0
34 *101:24 *1269:C1 2.14658e-05
35 *121:14 *1468:A 4.88515e-05
36 *121:14 *167:31 4.53889e-05
*RES
1 *1469:X *167:10 18.3357 
2 *167:10 *1269:C1 15.5857 
3 *167:10 *167:31 11.1964 
4 *167:31 *1258:C1 27.2286 
5 *167:31 *1468:A 10.6571 
*END

*D_NET *168 0.00278078
*CONN
*I *1223:B1 I *D sky130_fd_sc_hd__a22o_1
*I *1257:B1 I *D sky130_fd_sc_hd__a221o_1
*I *1287:B I *D sky130_fd_sc_hd__nand2_2
*I *1475:X O *D sky130_fd_sc_hd__buf_1
*CAP
1 *1223:B1 0
2 *1257:B1 0.000287324
3 *1287:B 5.36538e-05
4 *1475:X 5.68214e-05
5 *168:25 0.00065598
6 *168:10 0.000479132
7 *1257:B1 *186:91 0
8 *1257:B1 *204:80 0
9 *1287:B *1368:CLK 5.06646e-05
10 *1287:B *204:103 2.11419e-05
11 *168:10 *1368:CLK 2.04825e-05
12 *168:25 *1288:A1 0.000229456
13 *168:25 *1368:CLK 1.31516e-05
14 *168:25 *204:80 4.58976e-05
15 *168:25 *208:54 0.00040963
16 *168:25 *208:62 9.71197e-05
17 *1223:A2 *1257:B1 0
18 *1268:A2 *168:25 1.38323e-05
19 *1288:S *168:25 0.000310806
20 *1290:S *1287:B 3.43988e-06
21 *92:36 *1257:B1 0
22 *146:19 *1287:B 2.78753e-05
23 *146:19 *168:25 4.37485e-06
*RES
1 *1475:X *168:10 14.6125 
2 *168:10 *1287:B 15.2911 
3 *168:10 *168:25 13.8304 
4 *168:25 *1257:B1 22.9786 
5 *168:25 *1223:B1 9.3 
*END

*D_NET *169 0.00922469
*CONN
*I *1282:B I *D sky130_fd_sc_hd__nand2_2
*I *1219:B1 I *D sky130_fd_sc_hd__a22o_1
*I *1257:A2 I *D sky130_fd_sc_hd__a221o_1
*I *1470:X O *D sky130_fd_sc_hd__clkbuf_2
*CAP
1 *1282:B 0.000513224
2 *1219:B1 0
3 *1257:A2 0.000383787
4 *1470:X 0.000917371
5 *169:33 0.00137398
6 *169:12 0.00216191
7 *1257:A2 *1257:A1 0.000163737
8 *1257:A2 *1285:A1 9.88425e-05
9 *1282:B *1356:CLK 0
10 *1282:B *1364:CLK 7.12595e-05
11 *1282:B *175:193 0.000127019
12 *169:12 *1226:A 0
13 *169:12 *1315:A0 0
14 *169:12 *1320:A0 0
15 *169:12 *1366:RESET_B 5.99125e-05
16 *169:12 *1391:CLK 0.000218019
17 *169:12 *1438:A 0.000338351
18 *169:12 *190:10 0.00015134
19 *169:12 *205:35 0
20 *169:33 *1280:A1 9.45471e-05
21 *169:33 *1285:A1 3.51062e-05
22 *169:33 *1364:CLK 3.97677e-05
23 *169:33 *171:135 0.000150999
24 *169:33 *186:76 3.34295e-05
25 *169:33 *205:35 0
26 *1219:A2 *169:33 0.000657846
27 *1242:A *169:33 0.00014183
28 *1285:S *1282:B 1.3277e-05
29 *1320:S *169:12 0
30 *1364:D *1282:B 0.000130751
31 *1366:D *169:33 5.33882e-05
32 *1391:D *169:12 0.000184719
33 *89:12 *169:12 0.00010096
34 *89:25 *169:12 0.00010096
35 *97:35 *169:12 0.000908354
36 *142:10 *169:33 0
*RES
1 *1470:X *169:12 42.3536 
2 *169:12 *1257:A2 15.7196 
3 *169:12 *169:33 24.8393 
4 *169:33 *1219:B1 9.3 
5 *169:33 *1282:B 26.425 
*END

*D_NET *170 0.00754982
*CONN
*I *1449:A I *D sky130_fd_sc_hd__buf_1
*I *1448:A I *D sky130_fd_sc_hd__clkbuf_2
*I *1460:X O *D sky130_fd_sc_hd__buf_1
*CAP
1 *1449:A 0.00154068
2 *1448:A 0.000116592
3 *1460:X 0.00070674
4 *170:8 0.00236402
5 *1448:A *1236:C 0
6 *1448:A *173:63 0.000222878
7 *1448:A *197:40 0
8 *1449:A *1251:B2 4.5926e-05
9 *1449:A *1372:RESET_B 0.00022287
10 *1449:A *173:63 0.000383033
11 *1449:A *197:40 0
12 *170:8 *1238:B 2.89114e-05
13 *170:8 *1445:A 1.55885e-05
14 *170:8 *192:12 0.000270212
15 *170:8 *197:23 0.000122081
16 *1251:A2 *1449:A 6.74039e-05
17 *1456:A *1449:A 0.00137175
18 *116:14 *1449:A 1.39841e-05
19 *121:14 *1449:A 5.71472e-05
*RES
1 *1460:X *170:8 23.3714 
2 *170:8 *1448:A 16.6571 
3 *170:8 *1449:A 38.675 
*END

*D_NET *171 0.0252158
*CONN
*I *1280:A0 I *D sky130_fd_sc_hd__mux2_1
*I *1285:A0 I *D sky130_fd_sc_hd__mux2_1
*I *1290:A0 I *D sky130_fd_sc_hd__mux2_1
*I *1340:A0 I *D sky130_fd_sc_hd__mux2_1
*I *1215:A0 I *D sky130_fd_sc_hd__mux2_1
*I *1335:A0 I *D sky130_fd_sc_hd__mux2_1
*I *1345:A0 I *D sky130_fd_sc_hd__mux2_1
*I *1330:A0 I *D sky130_fd_sc_hd__mux2_1
*I *1350:A0 I *D sky130_fd_sc_hd__mux2_1
*I *1325:A0 I *D sky130_fd_sc_hd__mux2_1
*I *1420:X O *D sky130_fd_sc_hd__buf_2
*CAP
1 *1280:A0 0.000138377
2 *1285:A0 0
3 *1290:A0 0.000888737
4 *1340:A0 0.000143689
5 *1215:A0 7.7016e-05
6 *1335:A0 7.03212e-05
7 *1345:A0 0.000632188
8 *1330:A0 0.00053639
9 *1350:A0 0.000177719
10 *1325:A0 8.78182e-05
11 *1420:X 0
12 *171:135 0.00108571
13 *171:125 0.00161431
14 *171:94 0.00162761
15 *171:81 0.000550228
16 *171:40 0.00146974
17 *171:38 0.000457414
18 *171:36 0.00201792
19 *171:8 0.00035648
20 *171:4 0.00175468
21 *1215:A0 *1410:RESET_B 0.000141408
22 *1215:A0 *1422:A 8.43535e-06
23 *1280:A0 *1364:CLK 0
24 *1280:A0 *1366:CLK 2.59355e-05
25 *1280:A0 *207:132 0.000137224
26 *1290:A0 *1257:A1 9.90367e-05
27 *1290:A0 *1257:B2 8.68719e-05
28 *1290:A0 *1290:A1 0.000140933
29 *1290:A0 *249:10 0
30 *1325:A0 *1325:A1 0.000177941
31 *1330:A0 *1330:A1 0.000262292
32 *1330:A0 *1336:A0 4.35131e-05
33 *1330:A0 *226:8 5.41494e-05
34 *1335:A0 *1260:A1 9.71197e-05
35 *1340:A0 *1331:A0 0.000168939
36 *1340:A0 *1340:A1 3.18676e-05
37 *1345:A0 *1407:CLK 7.77751e-05
38 *1345:A0 *1407:RESET_B 9.23759e-05
39 *1350:A0 *1325:A1 3.34366e-05
40 *1350:A0 *1398:RESET_B 0
41 *1350:A0 *1418:RESET_B 0
42 *171:8 *1261:A1 0.000175251
43 *171:8 *1325:A1 0.000142856
44 *171:8 *1398:RESET_B 0.000122057
45 *171:36 *1260:A1 1.74352e-05
46 *171:36 *1261:A1 9.77414e-05
47 *171:36 *1263:A1 4.61529e-05
48 *171:36 *1322:A 0.000141729
49 *171:36 *1398:RESET_B 1.39726e-05
50 *171:36 *1420:A 0.000146724
51 *171:36 *179:16 0.000184745
52 *171:36 *214:18 1.82549e-05
53 *171:38 *225:12 3.25078e-05
54 *171:40 *1336:A0 0.000133477
55 *171:40 *179:20 0
56 *171:40 *225:12 7.6021e-05
57 *171:81 *179:49 0
58 *171:94 *1410:RESET_B 0.000303977
59 *171:94 *1422:A 0.000811913
60 *171:94 *206:24 0.000133374
61 *171:125 *1270:A1 0.000163765
62 *171:125 *1274:A1 0.000189448
63 *171:125 *1282:A 0
64 *171:125 *1316:A1 0.000135549
65 *171:125 *1331:A0 0.000150625
66 *171:125 *1341:A1 8.46507e-05
67 *171:125 *1367:RESET_B 0.000183435
68 *171:125 *180:37 2.34204e-05
69 *171:125 *205:19 0
70 *171:125 *207:78 7.05447e-05
71 *171:125 *207:132 0.00176018
72 *1215:S *1215:A0 4.87854e-05
73 *1219:A2 *171:135 9.41642e-05
74 *1237:A2 *171:36 0.000135691
75 *1237:B1 *171:36 0.000101169
76 *1241:C1 *1340:A0 5.52238e-05
77 *1241:D1 *171:125 9.60939e-05
78 *1260:A2 *171:36 7.32955e-05
79 *1262:A2 *171:81 0.000349523
80 *1262:B1 *171:81 0
81 *1263:C1 *171:81 1.01912e-05
82 *1264:A *1290:A0 0.00026613
83 *1270:A2 *171:125 7.6644e-05
84 *1274:B1 *171:125 3.48139e-05
85 *1274:C1 *1340:A0 0
86 *1274:C1 *171:125 0
87 *1274:D1 *171:125 0.000100823
88 *1285:S *171:135 0.000196908
89 *1290:S *1290:A0 1.21258e-05
90 *1322:B *171:36 4.30274e-05
91 *1336:S *171:38 0
92 *1336:S *171:40 0
93 *1344:S *171:36 5.52302e-05
94 *1350:S *1350:A0 3.34295e-05
95 *1366:D *1290:A0 0.000186662
96 *1366:D *171:135 4.72917e-05
97 *1388:D *171:125 3.47737e-05
98 *1398:D *1325:A0 0
99 *1407:D *1330:A0 0
100 *1411:D *171:125 0.000152013
101 *103:35 *171:125 5.66157e-05
102 *106:60 *171:36 0.000451253
103 *110:59 *171:81 4.19624e-06
104 *118:12 *171:125 0
105 *132:26 *171:81 7.8178e-06
106 *142:10 *171:125 0.000636176
107 *155:44 *171:38 5.58941e-05
108 *155:44 *171:81 0.000263656
109 *156:16 *1340:A0 0
110 *157:6 *171:36 0.000659763
111 *169:33 *171:135 0.000150999
*RES
1 *1420:X *171:4 9.3 
2 *171:4 *171:8 7.91071 
3 *171:8 *1325:A0 16.05 
4 *171:8 *1350:A0 16.9964 
5 *171:4 *171:36 34.75 
6 *171:36 *171:38 1.64286 
7 *171:38 *171:40 5.89286 
8 *171:40 *1330:A0 24.55 
9 *171:40 *1345:A0 22.2821 
10 *171:38 *1335:A0 14.7464 
11 *171:36 *171:81 11 
12 *171:81 *1215:A0 11.3893 
13 *171:81 *171:94 14.0714 
14 *171:94 *1340:A0 17.0143 
15 *171:94 *171:125 45.9286 
16 *171:125 *171:135 10.125 
17 *171:135 *1290:A0 31.6393 
18 *171:135 *1285:A0 9.3 
19 *171:125 *1280:A0 16.2821 
*END

*D_NET *172 0.0102336
*CONN
*I *1300:A0 I *D sky130_fd_sc_hd__mux2_1
*I *1315:A0 I *D sky130_fd_sc_hd__mux2_1
*I *1320:A0 I *D sky130_fd_sc_hd__mux2_1
*I *1295:A0 I *D sky130_fd_sc_hd__mux2_1
*I *1310:A0 I *D sky130_fd_sc_hd__mux2_1
*I *1305:A0 I *D sky130_fd_sc_hd__mux2_1
*I *1421:X O *D sky130_fd_sc_hd__dlymetal6s2s_1
*CAP
1 *1300:A0 0
2 *1315:A0 0.000156628
3 *1320:A0 0.000197244
4 *1295:A0 0.00013989
5 *1310:A0 0
6 *1305:A0 0.000305054
7 *1421:X 0.00021072
8 *172:67 0.00114969
9 *172:52 0.000997911
10 *172:50 0.00138399
11 *172:35 0.00183479
12 *172:10 0.00102878
13 *1295:A0 *1258:A1 5.52302e-05
14 *1295:A0 *1295:A1 5.33005e-05
15 *1295:A0 *1316:A0 2.14658e-05
16 *1295:A0 *186:91 7.50697e-05
17 *1305:A0 *1289:A0 9.87672e-05
18 *1305:A0 *1305:A1 0.000188586
19 *1315:A0 *1315:A1 1.02504e-05
20 *1315:A0 *205:35 1.19402e-05
21 *172:10 *1256:A1 5.20751e-05
22 *172:10 *1305:A1 0
23 *172:35 *1302:A 0.000400445
24 *172:35 *1382:RESET_B 0.00012357
25 *172:50 *186:91 0.000133243
26 *172:52 *186:91 6.7257e-05
27 *172:67 *1259:A1 1.15172e-05
28 *172:67 *1259:B2 8.60433e-06
29 *172:67 *1300:A1 7.67939e-05
30 *172:67 *257:14 8.0786e-06
31 *1258:A2 *1295:A0 9.25014e-06
32 *1259:C1 *1295:A0 0
33 *1259:C1 *172:52 0
34 *1295:S *1295:A0 9.80173e-05
35 *1300:S *172:67 5.33433e-05
36 *1305:S *1305:A0 8.98941e-05
37 *1310:S *172:35 5.7661e-06
38 *1310:S *172:50 6.46481e-05
39 *1316:S *1315:A0 1.08359e-05
40 *1316:S *1320:A0 0
41 *1369:D *1305:A0 0.00015827
42 *1370:D *172:50 1.72894e-05
43 *1386:D *172:35 0.000181189
44 *1390:D *1315:A0 0.000221543
45 *1390:D *172:67 5.52238e-05
46 *1391:D *1320:A0 2.56601e-05
47 *88:12 *172:67 1.05729e-05
48 *88:27 *172:67 0.000179294
49 *92:27 *1295:A0 0
50 *92:36 *172:50 0
51 *92:36 *172:52 0
52 *142:10 *1320:A0 0
53 *150:14 *172:35 0.000230482
54 *150:14 *172:50 2.14658e-05
55 *169:12 *1315:A0 0
56 *169:12 *1320:A0 0
*RES
1 *1421:X *172:10 17.4518 
2 *172:10 *1305:A0 21.1125 
3 *172:10 *172:35 16.5536 
4 *172:35 *1310:A0 9.3 
5 *172:35 *172:50 21.9821 
6 *172:50 *172:52 1.64286 
7 *172:52 *1295:A0 17.1036 
8 *172:52 *172:67 14.8929 
9 *172:67 *1320:A0 21.7643 
10 *172:67 *1315:A0 21.3 
11 *172:50 *1300:A0 13.8 
*END

*D_NET *173 0.0192858
*CONN
*I *1214:A0 I *D sky130_fd_sc_hd__mux2_1
*I *1344:A0 I *D sky130_fd_sc_hd__mux2_1
*I *1334:A0 I *D sky130_fd_sc_hd__mux2_1
*I *1299:A0 I *D sky130_fd_sc_hd__mux2_1
*I *1309:A0 I *D sky130_fd_sc_hd__mux2_1
*I *1294:A0 I *D sky130_fd_sc_hd__mux2_1
*I *1289:A0 I *D sky130_fd_sc_hd__mux2_1
*I *1304:A0 I *D sky130_fd_sc_hd__mux2_1
*I *1324:A0 I *D sky130_fd_sc_hd__mux2_1
*I *1349:A0 I *D sky130_fd_sc_hd__mux2_1
*I *1422:X O *D sky130_fd_sc_hd__clkbuf_2
*CAP
1 *1214:A0 0.000114048
2 *1344:A0 0.000667478
3 *1334:A0 0
4 *1299:A0 0.000349831
5 *1309:A0 0
6 *1294:A0 0
7 *1289:A0 0.000362666
8 *1304:A0 3.92359e-05
9 *1324:A0 0
10 *1349:A0 0
11 *1422:X 0
12 *173:130 0.000781526
13 *173:101 0.00102254
14 *173:78 0.000746269
15 *173:63 0.0011673
16 *173:46 0.000965339
17 *173:33 0.000378561
18 *173:22 0.000991883
19 *173:12 0.00185561
20 *173:4 0.00104727
21 *1214:A0 *189:21 8.37064e-05
22 *1214:A0 *240:12 7.83659e-05
23 *1289:A0 *1245:A1 0
24 *1289:A0 *1289:A1 0
25 *1289:A0 *1372:RESET_B 3.34366e-05
26 *1289:A0 *182:63 0.000417177
27 *1289:A0 *191:53 0.000154762
28 *1299:A0 *1251:A1 7.3237e-05
29 *1299:A0 *1309:A1 1.32552e-05
30 *1299:A0 *176:28 0.000181762
31 *1299:A0 *182:47 0.000245356
32 *1299:A0 *191:68 5.81363e-05
33 *1299:A0 *191:90 0.000189455
34 *1299:A0 *264:8 7.83659e-05
35 *1304:A0 *1238:C 5.52238e-05
36 *1344:A0 *1260:B2 6.87574e-05
37 *1344:A0 *1344:A1 0.000309266
38 *1344:A0 *189:21 5.26184e-05
39 *1344:A0 *189:27 0.000152387
40 *1344:A0 *207:51 0
41 *173:12 *1353:CLK 0.000102207
42 *173:12 *1422:A 5.7661e-06
43 *173:12 *207:18 0.000151827
44 *173:12 *240:12 5.39166e-06
45 *173:22 *1326:A0 0.000268923
46 *173:22 *1419:CLK 8.00806e-05
47 *173:22 *207:18 0.000778804
48 *173:33 *1246:B2 1.9643e-05
49 *173:33 *1349:A1 8.77022e-05
50 *173:33 *1419:CLK 0.000103983
51 *173:33 *178:59 0.000103267
52 *173:46 *1246:B2 0.000276809
53 *173:46 *1324:A1 0.000177941
54 *173:46 *1380:CLK 0
55 *173:46 *1381:RESET_B 5.01876e-06
56 *173:46 *178:59 4.10358e-05
57 *173:63 *1236:C 0
58 *173:63 *1236:D 0.00011403
59 *173:63 *1238:B 0
60 *173:63 *1238:C 0.000184745
61 *173:63 *1372:CLK 0
62 *173:63 *1372:RESET_B 7.252e-05
63 *173:63 *1373:RESET_B 5.52302e-05
64 *173:63 *1381:RESET_B 0
65 *173:63 *191:12 0
66 *173:63 *252:6 2.59355e-05
67 *173:63 *260:10 7.30018e-05
68 *173:78 *252:6 0.000100171
69 *173:101 *1245:A1 0.00019886
70 *173:101 *1245:B2 4.83648e-05
71 *173:101 *1293:A0 0.000128966
72 *173:101 *214:37 3.66521e-06
73 *173:101 *252:6 2.84026e-05
74 *1215:S *1214:A0 1.3142e-05
75 *1240:A2 *173:22 0.000245623
76 *1245:A2 *173:101 7.27282e-05
77 *1305:A0 *1289:A0 9.87672e-05
78 *1305:S *1289:A0 4.7812e-05
79 *1309:S *1299:A0 8.89111e-05
80 *1334:S *173:12 8.00622e-05
81 *1334:S *173:22 6.05161e-06
82 *1349:S *173:22 2.15363e-05
83 *1349:S *173:33 4.48583e-05
84 *1354:D *1344:A0 2.1527e-05
85 *1369:D *1289:A0 5.52302e-05
86 *1372:D *173:63 0
87 *1373:D *173:63 0.000139913
88 *1377:D *1299:A0 9.46929e-05
89 *1385:D *173:101 0.000357945
90 *1419:D *173:22 0.000374434
91 *1448:A *173:63 0.000222878
92 *1449:A *173:63 0.000383033
93 *93:29 *173:101 0.000249002
94 *106:47 *1214:A0 0
95 *106:47 *1344:A0 0.000455577
96 *106:60 *1344:A0 3.38564e-05
97 *109:14 *173:46 5.10822e-05
98 *109:41 *173:22 0.000100142
99 *147:40 *1299:A0 2.88018e-06
100 *147:40 *173:101 4.70078e-05
*RES
1 *1422:X *173:4 9.3 
2 *173:4 *173:12 13.625 
3 *173:12 *173:22 23.3571 
4 *173:22 *1349:A0 13.8 
5 *173:22 *173:33 5.51786 
6 *173:33 *1324:A0 13.8 
7 *173:33 *173:46 10.4286 
8 *173:46 *1304:A0 9.83571 
9 *173:46 *173:63 25.3036 
10 *173:63 *1289:A0 27.2821 
11 *173:63 *173:78 1.76786 
12 *173:78 *1294:A0 9.3 
13 *173:78 *173:101 21.875 
14 *173:101 *1309:A0 9.3 
15 *173:101 *1299:A0 27.8714 
16 *173:12 *1334:A0 9.3 
17 *173:4 *173:130 4.5 
18 *173:130 *1344:A0 26.5679 
19 *173:130 *1214:A0 16.7107 
*END

*D_NET *174 0.00872507
*CONN
*I *1284:A0 I *D sky130_fd_sc_hd__mux2_1
*I *1279:A0 I *D sky130_fd_sc_hd__mux2_1
*I *1314:A0 I *D sky130_fd_sc_hd__mux2_1
*I *1319:A0 I *D sky130_fd_sc_hd__mux2_1
*I *1339:A0 I *D sky130_fd_sc_hd__mux2_1
*I *1329:A0 I *D sky130_fd_sc_hd__mux2_1
*I *1423:X O *D sky130_fd_sc_hd__buf_1
*CAP
1 *1284:A0 0
2 *1279:A0 0.000116711
3 *1314:A0 0.00025845
4 *1319:A0 0.000335342
5 *1339:A0 0
6 *1329:A0 0.000808875
7 *1423:X 0
8 *174:61 0.00062717
9 *174:50 0.000929646
10 *174:44 0.000584384
11 *174:12 0.00103203
12 *174:6 0.000465247
13 *1279:A0 *1254:A1 0.000248486
14 *1279:A0 *184:48 0.000175892
15 *1279:A0 *204:164 0.000240958
16 *1314:A0 *1357:CLK 9.7659e-05
17 *1329:A0 *1338:A0 0.000195555
18 *1329:A0 *1408:RESET_B 0.000127263
19 *1329:A0 *175:42 0.000139653
20 *1329:A0 *179:97 8.41655e-05
21 *1329:A0 *186:38 0
22 *1329:A0 *212:33 0
23 *174:12 *1423:A 7.76647e-05
24 *174:12 *175:42 0.000200734
25 *174:44 *1423:A 2.42082e-05
26 *174:44 *175:42 6.39997e-05
27 *174:44 *175:193 0.000140011
28 *174:44 *186:49 0
29 *174:50 *206:140 0
30 *174:50 *212:33 0.000290037
31 *174:61 *1254:A1 0.000171375
32 *174:61 *204:164 0.00019384
33 *174:61 *206:140 0
34 *174:61 *212:33 0.0001746
35 *1279:S *1279:A0 0.000175892
36 *1284:S *174:44 2.89016e-05
37 *1284:S *174:50 4.43256e-05
38 *1286:S *174:50 0.000180777
39 *1337:B *1329:A0 2.04825e-05
40 *1365:D *1319:A0 7.77652e-05
41 *1393:D *1319:A0 5.52238e-05
42 *1452:A *1329:A0 2.59355e-05
43 *1452:A *174:12 0.000225903
44 *104:44 *1329:A0 9.59532e-06
45 *152:25 *1319:A0 7.02611e-05
46 *166:10 *1314:A0 6.05161e-06
*RES
1 *1423:X *174:6 13.8 
2 *174:6 *174:12 10.4286 
3 *174:12 *1329:A0 33.4087 
4 *174:12 *1339:A0 9.3 
5 *174:6 *174:44 10.0179 
6 *174:44 *174:50 10.8571 
7 *174:50 *1319:A0 19.2643 
8 *174:50 *174:61 6.5 
9 *174:61 *1314:A0 17.6214 
10 *174:61 *1279:A0 18.7286 
11 *174:44 *1284:A0 9.3 
*END

*D_NET *175 0.0321779
*CONN
*I *1278:A0 I *D sky130_fd_sc_hd__mux2_1
*I *1318:A0 I *D sky130_fd_sc_hd__mux2_1
*I *1213:A0 I *D sky130_fd_sc_hd__mux2_1
*I *1303:A0 I *D sky130_fd_sc_hd__mux2_1
*I *1348:A0 I *D sky130_fd_sc_hd__mux2_1
*I *1333:A0 I *D sky130_fd_sc_hd__mux2_1
*I *1323:A0 I *D sky130_fd_sc_hd__mux2_1
*I *1343:A0 I *D sky130_fd_sc_hd__mux2_1
*I *1338:A0 I *D sky130_fd_sc_hd__mux2_1
*I *1328:A0 I *D sky130_fd_sc_hd__mux2_1
*I *1424:X O *D sky130_fd_sc_hd__buf_2
*CAP
1 *1278:A0 0
2 *1318:A0 7.70325e-05
3 *1213:A0 0.000112655
4 *1303:A0 0.0012175
5 *1348:A0 0.000471085
6 *1333:A0 8.12892e-05
7 *1323:A0 0.000369438
8 *1343:A0 0.000257013
9 *1338:A0 0.000208207
10 *1328:A0 0.000285549
11 *1424:X 0
12 *175:193 0.00141161
13 *175:78 0.00066262
14 *175:76 0.000389796
15 *175:70 0.00104624
16 *175:68 0.00204139
17 *175:64 0.00279733
18 *175:50 0.00281062
19 *175:42 0.00224963
20 *175:29 0.0010142
21 *175:4 0.000823512
22 *1213:A0 *1212:A 0
23 *1213:A0 *178:20 0
24 *1303:A0 *1272:B2 8.06419e-05
25 *1303:A0 *1303:A1 0.000140815
26 *1303:A0 *1352:CLK 0.000270943
27 *1303:A0 *1445:A 0.000185118
28 *1303:A0 *1447:A 4.19624e-06
29 *1303:A0 *200:50 0.000378257
30 *1303:A0 *214:37 0
31 *1318:A0 *180:25 9.41642e-05
32 *1323:A0 *1323:A1 5.06736e-05
33 *1323:A0 *1333:A1 4.18895e-05
34 *1323:A0 *1396:RESET_B 9.75542e-05
35 *1323:A0 *1404:CLK 2.69729e-05
36 *1323:A0 *187:42 1.10909e-05
37 *1323:A0 *187:44 2.65676e-05
38 *1323:A0 *214:18 8.54803e-05
39 *1323:A0 *223:12 0.000142856
40 *1323:A0 *275:8 0.000230475
41 *1328:A0 *1234:B2 0.000264844
42 *1328:A0 *1328:A1 0.000174805
43 *1328:A0 *1402:CLK 0
44 *1328:A0 *179:8 2.59355e-05
45 *1328:A0 *189:88 0
46 *1333:A0 *1333:A1 1.21258e-05
47 *1333:A0 *1396:RESET_B 5.33005e-05
48 *1338:A0 *1423:A 0
49 *1338:A0 *186:38 0
50 *1338:A0 *220:8 3.18676e-05
51 *1343:A0 *1404:RESET_B 0.000154737
52 *1343:A0 *177:36 3.90513e-05
53 *1343:A0 *177:62 7.98082e-05
54 *1343:A0 *223:12 0
55 *1348:A0 *1322:A 3.17576e-05
56 *1348:A0 *206:44 0.000197212
57 *175:29 *1234:A1 0.000104534
58 *175:29 *1234:B2 0
59 *175:29 *1422:A 0.000158912
60 *175:29 *179:8 0.000140471
61 *175:29 *206:115 2.05443e-05
62 *175:29 *212:33 0.000252856
63 *175:42 *1249:B2 0.000196269
64 *175:42 *1339:A1 0.000248486
65 *175:42 *1423:A 0
66 *175:42 *212:33 0
67 *175:50 *1392:RESET_B 7.02611e-05
68 *175:50 *190:49 7.02611e-05
69 *175:50 *271:8 3.21441e-05
70 *175:64 *1252:A1 9.37904e-05
71 *175:64 *206:24 0.000410991
72 *175:64 *206:28 0.000651954
73 *175:64 *207:78 0.000279082
74 *175:68 *1352:CLK 2.59355e-05
75 *175:68 *178:20 1.32724e-05
76 *175:68 *224:8 0.000119125
77 *175:70 *1334:A1 0
78 *175:70 *1352:CLK 5.66157e-05
79 *175:76 *1240:B2 0.000329823
80 *175:76 *177:76 0.000266099
81 *175:78 *1240:B2 8.08022e-05
82 *175:78 *177:62 7.90803e-05
83 *175:78 *177:76 2.24646e-05
84 *175:193 *1243:B1_N 0.000114334
85 *175:193 *1249:B2 0.000143797
86 *175:193 *1278:A1 5.52238e-05
87 *175:193 *1356:CLK 0
88 *175:193 *1356:RESET_B 0
89 *175:193 *1361:RESET_B 0
90 *175:193 *1365:RESET_B 7.65976e-05
91 *175:193 *1393:RESET_B 0
92 *175:193 *184:20 0
93 *175:193 *184:48 0.000220441
94 *175:193 *184:109 4.80729e-05
95 *175:193 *185:25 0.000127119
96 *175:193 *186:49 0
97 *175:193 *194:45 0
98 *175:193 *212:33 0.000317609
99 *1244:B2 *175:193 4.75428e-05
100 *1249:B1 *175:64 8.17274e-05
101 *1252:A2 *175:50 0.00019384
102 *1252:A2 *175:64 0.000217807
103 *1261:A2 *1348:A0 9.64165e-05
104 *1278:S *175:193 2.44318e-05
105 *1282:B *175:193 0.000127019
106 *1283:S *175:193 0.000263422
107 *1318:S *175:50 0.000186304
108 *1318:S *175:64 7.90803e-05
109 *1323:S *1323:A0 9.77414e-05
110 *1329:A0 *1338:A0 0.000195555
111 *1329:A0 *175:42 0.000139653
112 *1330:S *1328:A0 1.41029e-05
113 *1333:S *175:76 0.000102081
114 *1334:S *175:70 4.25809e-05
115 *1334:S *175:76 3.52228e-05
116 *1338:S *1338:A0 0.000272371
117 *1338:S *175:29 0.000172734
118 *1339:S *175:64 0.000496194
119 *1348:S *1348:A0 9.71197e-05
120 *1351:S *1348:A0 1.41642e-05
121 *1353:D *175:64 1.77347e-05
122 *1353:D *175:68 9.33978e-07
123 *1364:D *175:193 0.000103267
124 *1400:D *1328:A0 0
125 *1404:D *1323:A0 0.000484524
126 *1405:D *175:70 0
127 *1408:D *175:29 0.000125724
128 *1416:D *1348:A0 2.38651e-06
129 *103:41 *175:64 0.000180764
130 *107:18 *1303:A0 2.47753e-05
131 *107:26 *1303:A0 0
132 *107:26 *1348:A0 0
133 *109:25 *1303:A0 0.000123264
134 *110:10 *175:70 0
135 *118:12 *175:64 0.000132547
136 *140:12 *1303:A0 4.17806e-05
137 *145:20 *175:193 0.00127009
138 *145:42 *175:193 6.73939e-05
139 *153:42 *1348:A0 1.73182e-05
140 *158:30 *1348:A0 9.66977e-05
141 *174:12 *175:42 0.000200734
142 *174:44 *175:42 6.39997e-05
143 *174:44 *175:193 0.000140011
*RES
1 *1424:X *175:4 9.3 
2 *175:4 *1328:A0 24.7286 
3 *175:4 *175:29 25.5893 
4 *175:29 *1338:A0 18.9429 
5 *175:29 *175:42 8.32143 
6 *175:42 *175:50 17.4286 
7 *175:50 *175:64 37.8571 
8 *175:64 *175:68 10.7857 
9 *175:68 *175:70 5.28571 
10 *175:70 *175:76 7.76786 
11 *175:76 *175:78 1.33929 
12 *175:78 *1343:A0 19.1214 
13 *175:78 *1323:A0 33.5143 
14 *175:76 *1333:A0 14.7464 
15 *175:70 *1348:A0 31.3714 
16 *175:68 *1303:A0 44.7107 
17 *175:64 *1213:A0 20.2464 
18 *175:50 *1318:A0 14.7464 
19 *175:42 *175:193 49.5 
20 *175:193 *1278:A0 9.3 
*END

*D_NET *176 0.0155804
*CONN
*I *1283:A0 I *D sky130_fd_sc_hd__mux2_1
*I *1313:A0 I *D sky130_fd_sc_hd__mux2_1
*I *1298:A0 I *D sky130_fd_sc_hd__mux2_1
*I *1288:A0 I *D sky130_fd_sc_hd__mux2_1
*I *1308:A0 I *D sky130_fd_sc_hd__mux2_1
*I *1293:A0 I *D sky130_fd_sc_hd__mux2_1
*I *1425:X O *D sky130_fd_sc_hd__dlymetal6s2s_1
*CAP
1 *1283:A0 0.000103552
2 *1313:A0 0
3 *1298:A0 0.000250235
4 *1288:A0 0
5 *1308:A0 0
6 *1293:A0 0.000694659
7 *1425:X 0.000103202
8 *176:62 0.000461336
9 *176:28 0.00145136
10 *176:20 0.00265165
11 *176:12 0.00192704
12 *176:6 0.000449953
13 *1283:A0 *1356:RESET_B 0.00032246
14 *1293:A0 *1230:B2 0.000415476
15 *1293:A0 *1245:A1 6.05161e-06
16 *1293:A0 *182:47 0.000139907
17 *1293:A0 *214:37 7.09112e-05
18 *1298:A0 *1223:A1 0
19 *1298:A0 *1368:RESET_B 0.000286601
20 *1298:A0 *204:80 2.88424e-05
21 *1298:A0 *247:12 0
22 *176:6 *212:33 4.18895e-05
23 *176:12 *1282:A 0.000292031
24 *176:12 *1313:A1 5.52302e-05
25 *176:12 *212:33 9.60939e-05
26 *176:20 *1282:A 0.000197858
27 *176:20 *1313:A1 0.000137983
28 *176:20 *194:19 0.000887508
29 *176:20 *194:32 0.000198615
30 *176:28 *1251:A1 1.32552e-05
31 *176:28 *182:47 1.02821e-05
32 *176:28 *182:106 9.25014e-06
33 *176:28 *186:91 0.000295851
34 *176:28 *196:90 5.41794e-05
35 *176:28 *208:54 6.78336e-05
36 *176:62 *1368:RESET_B 0.000481441
37 *176:62 *182:106 0.000166262
38 *176:62 *186:91 0.000480434
39 *176:62 *204:80 4.57538e-05
40 *1245:A2 *1293:A0 0.000139632
41 *1283:S *1283:A0 0.000109809
42 *1298:S *1298:A0 1.92905e-05
43 *1299:A0 *176:28 0.000181762
44 *1299:S *176:28 0.000360894
45 *1300:S *176:28 0.000255055
46 *1308:S *176:28 5.33005e-05
47 *1378:D *176:28 0.000104974
48 *1384:D *176:28 0
49 *1456:A *1293:A0 0.000163607
50 *93:29 *1293:A0 0.000258915
51 *145:8 *176:12 5.17614e-05
52 *145:20 *1283:A0 3.9838e-05
53 *145:42 *1283:A0 3.69697e-05
54 *147:12 *1293:A0 0.000482179
55 *147:40 *1293:A0 0.000186669
56 *148:32 *1298:A0 0
57 *149:24 *1293:A0 0.000111808
58 *173:101 *1293:A0 0.000128966
*RES
1 *1425:X *176:6 11.0679 
2 *176:6 *176:12 6.01786 
3 *176:12 *176:20 28.7857 
4 *176:20 *176:28 20.625 
5 *176:28 *1293:A0 46.4429 
6 *176:28 *1308:A0 9.3 
7 *176:20 *176:62 8.32143 
8 *176:62 *1288:A0 13.8 
9 *176:62 *1298:A0 19.3179 
10 *176:12 *1313:A0 9.3 
11 *176:6 *1283:A0 22.3714 
*END

*D_NET *177 0.0137855
*CONN
*I *1353:RESET_B I *D sky130_fd_sc_hd__dfrtp_1
*I *1413:RESET_B I *D sky130_fd_sc_hd__dfrtp_1
*I *1416:RESET_B I *D sky130_fd_sc_hd__dfrtp_1
*I *1418:RESET_B I *D sky130_fd_sc_hd__dfrtp_1
*I *1398:RESET_B I *D sky130_fd_sc_hd__dfrtp_1
*I *1396:RESET_B I *D sky130_fd_sc_hd__dfrtp_1
*I *1412:RESET_B I *D sky130_fd_sc_hd__dfrtp_1
*I *1404:RESET_B I *D sky130_fd_sc_hd__dfrtp_1
*I *1415:RESET_B I *D sky130_fd_sc_hd__dfrtp_1
*I *1414:RESET_B I *D sky130_fd_sc_hd__dfrtp_1
*I *1426:X O *D sky130_fd_sc_hd__clkbuf_4
*CAP
1 *1353:RESET_B 0.000161209
2 *1413:RESET_B 0
3 *1416:RESET_B 8.18607e-05
4 *1418:RESET_B 0.000343505
5 *1398:RESET_B 0.000293585
6 *1396:RESET_B 0.000353013
7 *1412:RESET_B 2.80259e-05
8 *1404:RESET_B 0.000228959
9 *1415:RESET_B 5.46087e-05
10 *1414:RESET_B 0.000355524
11 *1426:X 7.03268e-05
12 *177:116 0.000415664
13 *177:80 0.00140773
14 *177:76 0.00121294
15 *177:62 0.000847222
16 *177:36 0.000282116
17 *177:34 0.000801169
18 *177:24 0.000920286
19 *177:12 0.000363367
20 *1353:RESET_B *1269:B2 0.000132102
21 *1396:RESET_B *1333:A1 4.58194e-05
22 *1396:RESET_B *187:42 9.1736e-05
23 *1396:RESET_B *223:12 7.48091e-05
24 *1396:RESET_B *275:8 0.000126629
25 *1398:RESET_B *1261:A1 7.6644e-05
26 *1398:RESET_B *1325:A1 0
27 *1398:RESET_B *214:37 0
28 *1404:RESET_B *1343:A1 0.00010326
29 *1412:RESET_B *187:70 2.51837e-05
30 *1414:RESET_B *1402:RESET_B 0.000116801
31 *1414:RESET_B *233:8 6.09804e-05
32 *1415:RESET_B *1414:CLK 3.14163e-05
33 *1415:RESET_B *234:10 9.41642e-05
34 *1418:RESET_B *1261:A1 0.000202842
35 *1418:RESET_B *1261:B2 0.000261858
36 *1418:RESET_B *1350:A1 9.71197e-05
37 *177:12 *1402:RESET_B 3.40725e-05
38 *177:12 *1414:CLK 6.4443e-05
39 *177:12 *233:8 0.000406265
40 *177:12 *234:10 9.60939e-05
41 *177:24 *1345:A1 5.41794e-05
42 *177:34 *1237:A1 5.33005e-05
43 *177:34 *1414:CLK 6.09968e-05
44 *177:34 *187:70 0.000139907
45 *177:34 *187:74 9.00795e-06
46 *177:34 *231:6 4.27935e-05
47 *177:34 *234:10 0.000135028
48 *177:36 *1343:A1 7.90803e-05
49 *177:62 *1343:A1 3.17148e-05
50 *177:62 *187:78 0
51 *177:76 *1240:A1 1.78951e-05
52 *177:76 *1240:B2 3.82227e-06
53 *177:80 *1416:CLK 0.000205358
54 *177:116 *1260:B2 0.000301771
55 *177:116 *1269:B2 7.67315e-05
56 *177:116 *1345:A1 9.25014e-06
57 *1240:B1 *177:76 6.05161e-06
58 *1261:A2 *1418:RESET_B 5.7661e-06
59 *1261:B1 *1418:RESET_B 7.43578e-06
60 *1323:A0 *1396:RESET_B 9.75542e-05
61 *1333:A0 *1396:RESET_B 5.33005e-05
62 *1333:S *177:62 8.07951e-05
63 *1333:S *177:76 0.000288564
64 *1343:A0 *1404:RESET_B 0.000154737
65 *1343:A0 *177:36 3.90513e-05
66 *1343:A0 *177:62 7.98082e-05
67 *1350:A0 *1398:RESET_B 0
68 *1350:A0 *1418:RESET_B 0
69 *1350:S *1418:RESET_B 0
70 *1412:D *1404:RESET_B 0.000222789
71 *1414:D *177:12 2.89114e-05
72 *153:12 *1398:RESET_B 0
73 *157:10 *177:116 9.09249e-05
74 *158:8 *1418:RESET_B 2.24763e-05
75 *160:14 *177:24 5.41794e-05
76 *160:14 *177:116 0.000142082
77 *160:29 *1353:RESET_B 0.000202762
78 *160:29 *177:116 0.000120485
79 *171:8 *1398:RESET_B 0.000122057
80 *171:36 *1398:RESET_B 1.39726e-05
81 *175:76 *177:76 0.000266099
82 *175:78 *177:62 7.90803e-05
83 *175:78 *177:76 2.24646e-05
*RES
1 *1426:X *1414:RESET_B 11.4161 
2 *1414:RESET_B *177:12 8.29464 
3 *177:12 *1415:RESET_B 1.3125 
4 *177:12 *177:24 5.23214 
5 *177:24 *177:34 17.8929 
6 *177:34 *177:36 1.03571 
7 *177:36 *1404:RESET_B 10.0268 
8 *177:36 *1412:RESET_B 4.97321 
9 *177:34 *177:62 3.21429 
10 *177:62 *1396:RESET_B 11.5446 
11 *177:62 *177:76 11.2679 
12 *177:76 *177:80 13.6607 
13 *177:80 *1398:RESET_B 10.0982 
14 *177:80 *1418:RESET_B 12.0625 
15 *177:76 *1416:RESET_B 2.16964 
16 *177:24 *177:116 7.10714 
17 *177:116 *1413:RESET_B 4.5 
18 *177:116 *1353:RESET_B 9.48214 
*END

*D_NET *178 0.00984758
*CONN
*I *1405:RESET_B I *D sky130_fd_sc_hd__dfrtp_1
*I *1399:RESET_B I *D sky130_fd_sc_hd__dfrtp_1
*I *1380:RESET_B I *D sky130_fd_sc_hd__dfrtp_1
*I *1381:RESET_B I *D sky130_fd_sc_hd__dfrtp_1
*I *1397:RESET_B I *D sky130_fd_sc_hd__dfrtp_1
*I *1417:RESET_B I *D sky130_fd_sc_hd__dfrtp_1
*I *1419:RESET_B I *D sky130_fd_sc_hd__dfrtp_1
*I *1352:RESET_B I *D sky130_fd_sc_hd__dfrtp_1
*I *1427:X O *D sky130_fd_sc_hd__buf_2
*CAP
1 *1405:RESET_B 2.63813e-05
2 *1399:RESET_B 0.000143541
3 *1380:RESET_B 0.000448431
4 *1381:RESET_B 0.000731251
5 *1397:RESET_B 3.82055e-05
6 *1417:RESET_B 3.11561e-05
7 *1419:RESET_B 0.000103157
8 *1352:RESET_B 0.00119043
9 *1427:X 0.000491296
10 *178:59 0.000503721
11 *178:49 0.000507406
12 *178:47 0.000623305
13 *178:28 0.000818061
14 *178:20 0.00125421
15 *1352:RESET_B *239:8 0.000137874
16 *1380:RESET_B *1380:CLK 5.33005e-05
17 *1380:RESET_B *209:25 0.000349361
18 *1380:RESET_B *209:33 0.000199294
19 *1381:RESET_B *1238:B 9.30523e-05
20 *1381:RESET_B *1238:D 0
21 *1381:RESET_B *1435:A 0
22 *1381:RESET_B *209:25 4.85631e-05
23 *1381:RESET_B *260:10 0
24 *1397:RESET_B *1435:A 0
25 *1405:RESET_B *1352:CLK 2.81497e-05
26 *1417:RESET_B *188:24 1.25672e-06
27 *1417:RESET_B *188:39 1.27848e-05
28 *178:20 *1212:A 0
29 *178:20 *1213:A1 3.0285e-05
30 *178:20 *1352:CLK 4.9661e-05
31 *178:20 *206:34 0
32 *178:20 *224:8 8.02593e-05
33 *178:28 *1326:A0 0.000180251
34 *178:28 *1352:CLK 0.000111442
35 *178:28 *188:47 0.000630561
36 *178:47 *1380:CLK 3.17067e-05
37 *178:47 *188:47 0.000134557
38 *178:47 *188:67 3.65046e-05
39 *178:49 *188:39 0.000132577
40 *178:49 *236:8 9.90367e-05
41 *178:59 *1324:A1 9.80029e-05
42 *178:59 *1435:A 0
43 *1213:A0 *178:20 0
44 *1349:S *1419:RESET_B 0
45 *1349:S *178:47 0
46 *1399:D *1399:RESET_B 9.93955e-05
47 *109:14 *1381:RESET_B 0.000103253
48 *110:10 *178:20 0
49 *140:12 *1352:RESET_B 3.33083e-05
50 *173:33 *178:59 0.000103267
51 *173:46 *1381:RESET_B 5.01876e-06
52 *173:46 *178:59 4.10358e-05
53 *173:63 *1381:RESET_B 0
54 *175:68 *178:20 1.32724e-05
*RES
1 *1427:X *1352:RESET_B 16.0768 
2 *1352:RESET_B *178:20 19.3393 
3 *178:20 *178:28 14.2143 
4 *178:28 *1419:RESET_B 6.14286 
5 *178:28 *178:47 9.28571 
6 *178:47 *178:49 5.46429 
7 *178:49 *1417:RESET_B 0.473214 
8 *178:49 *178:59 9.33036 
9 *178:59 *1397:RESET_B 5.3125 
10 *178:59 *1381:RESET_B 9.80357 
11 *1381:RESET_B *1380:RESET_B 9.46429 
12 *178:47 *1399:RESET_B 2.52679 
13 *178:20 *1405:RESET_B 0.901786 
*END

*D_NET *179 0.0122532
*CONN
*I *1408:RESET_B I *D sky130_fd_sc_hd__dfrtp_1
*I *1401:RESET_B I *D sky130_fd_sc_hd__dfrtp_1
*I *1400:RESET_B I *D sky130_fd_sc_hd__dfrtp_1
*I *1403:RESET_B I *D sky130_fd_sc_hd__dfrtp_1
*I *1355:RESET_B I *D sky130_fd_sc_hd__dfrtp_1
*I *1410:RESET_B I *D sky130_fd_sc_hd__dfrtp_1
*I *1354:RESET_B I *D sky130_fd_sc_hd__dfrtp_1
*I *1406:RESET_B I *D sky130_fd_sc_hd__dfrtp_1
*I *1402:RESET_B I *D sky130_fd_sc_hd__dfrtp_1
*I *1407:RESET_B I *D sky130_fd_sc_hd__dfrtp_1
*I *1428:X O *D sky130_fd_sc_hd__clkbuf_4
*CAP
1 *1408:RESET_B 9.95243e-05
2 *1401:RESET_B 0
3 *1400:RESET_B 0.000272613
4 *1403:RESET_B 1.91209e-05
5 *1355:RESET_B 0.000162214
6 *1410:RESET_B 0.000429737
7 *1354:RESET_B 0
8 *1406:RESET_B 0
9 *1402:RESET_B 0.000583419
10 *1407:RESET_B 0.000120768
11 *1428:X 0
12 *179:97 0.000254686
13 *179:85 0.000528535
14 *179:56 0.000691995
15 *179:49 0.00028679
16 *179:20 0.000887885
17 *179:18 0.000268893
18 *179:16 0.000864004
19 *179:8 0.00117746
20 *179:4 0.000667034
21 *1355:RESET_B *207:51 0.000329101
22 *1400:RESET_B *1424:A 2.94103e-05
23 *1400:RESET_B *1426:A 0
24 *1400:RESET_B *186:38 0
25 *1400:RESET_B *212:33 1.52978e-05
26 *1400:RESET_B *219:8 7.70134e-05
27 *1402:RESET_B *1426:A 0.000214518
28 *1407:RESET_B *1407:CLK 0
29 *1408:RESET_B *212:33 0.000121456
30 *1410:RESET_B *206:24 0.000313357
31 *179:8 *1424:A 0.000232399
32 *179:8 *222:8 6.97409e-05
33 *179:16 *1260:A1 1.63337e-05
34 *179:16 *1263:A1 9.71197e-05
35 *179:16 *1335:A1 5.52302e-05
36 *179:16 *189:69 0.000179573
37 *179:16 *222:8 4.88631e-05
38 *179:18 *207:51 0.00018459
39 *179:18 *225:12 8.5896e-05
40 *179:20 *1407:CLK 0
41 *179:20 *207:51 0.000108118
42 *179:20 *225:12 3.40128e-05
43 *179:49 *1262:A1 3.81765e-05
44 *179:49 *207:51 0.000296306
45 *179:56 *1215:A1 7.15687e-05
46 *179:56 *1262:A1 5.39795e-05
47 *179:56 *207:51 0.000284399
48 *179:85 *1424:A 1.02821e-05
49 *179:85 *212:8 9.71197e-05
50 *179:97 *186:38 0
51 *179:97 *212:33 0.000156952
52 *1215:A0 *1410:RESET_B 0.000141408
53 *1215:S *1410:RESET_B 1.39841e-05
54 *1260:A2 *179:16 0.000130079
55 *1262:A2 *1355:RESET_B 4.35048e-05
56 *1262:A2 *179:56 1.78353e-05
57 *1262:B1 *1355:RESET_B 0
58 *1263:C1 *179:49 1.01912e-05
59 *1328:A0 *179:8 2.59355e-05
60 *1329:A0 *1408:RESET_B 0.000127263
61 *1329:A0 *179:97 8.41655e-05
62 *1336:S *179:16 0.000140933
63 *1345:A0 *1407:RESET_B 9.23759e-05
64 *1414:RESET_B *1402:RESET_B 0.000116801
65 *103:8 *1355:RESET_B 0
66 *110:59 *179:49 1.90936e-05
67 *132:26 *179:49 9.08283e-05
68 *154:19 *1400:RESET_B 0
69 *171:36 *179:16 0.000184745
70 *171:40 *179:20 0
71 *171:81 *179:49 0
72 *171:94 *1410:RESET_B 0.000303977
73 *175:29 *179:8 0.000140471
74 *177:12 *1402:RESET_B 3.40725e-05
*RES
1 *1428:X *179:4 9.3 
2 *179:4 *179:8 11.5357 
3 *179:8 *179:16 17.0893 
4 *179:16 *179:18 2.55357 
5 *179:18 *179:20 3.76786 
6 *179:20 *1407:RESET_B 6.72321 
7 *179:20 *1402:RESET_B 13.3304 
8 *179:18 *1406:RESET_B 4.5 
9 *179:16 *179:49 4.07143 
10 *179:49 *1354:RESET_B 4.5 
11 *179:49 *179:56 3.76786 
12 *179:56 *1410:RESET_B 12.9196 
13 *179:56 *1355:RESET_B 8.875 
14 *179:8 *1403:RESET_B 0.366071 
15 *179:4 *179:85 5.85714 
16 *179:85 *1400:RESET_B 9.0625 
17 *179:85 *179:97 4.07143 
18 *179:97 *1401:RESET_B 4.5 
19 *179:97 *1408:RESET_B 7.66071 
*END

*D_NET *180 0.00796741
*CONN
*I *1365:RESET_B I *D sky130_fd_sc_hd__dfrtp_1
*I *1367:RESET_B I *D sky130_fd_sc_hd__dfrtp_1
*I *1395:RESET_B I *D sky130_fd_sc_hd__dfrtp_1
*I *1411:RESET_B I *D sky130_fd_sc_hd__dfrtp_1
*I *1409:RESET_B I *D sky130_fd_sc_hd__dfrtp_1
*I *1392:RESET_B I *D sky130_fd_sc_hd__dfrtp_1
*I *1429:X O *D sky130_fd_sc_hd__clkbuf_2
*CAP
1 *1365:RESET_B 0.000262875
2 *1367:RESET_B 0.000420379
3 *1395:RESET_B 0.000333542
4 *1411:RESET_B 3.44766e-05
5 *1409:RESET_B 0.00103687
6 *1392:RESET_B 0.000219674
7 *1429:X 0.000219674
8 *180:37 0.000818976
9 *180:25 0.00107967
10 *180:12 0.000319612
11 *1365:RESET_B *1249:B2 0.000185323
12 *1365:RESET_B *212:33 0.000308655
13 *1367:RESET_B *207:78 0
14 *1367:RESET_B *207:132 0.000264407
15 *1392:RESET_B *1423:A 5.52238e-05
16 *1392:RESET_B *1429:A 6.05161e-06
17 *1392:RESET_B *271:8 6.09889e-05
18 *1395:RESET_B *190:33 7.33786e-06
19 *1395:RESET_B *207:64 7.16833e-05
20 *1409:RESET_B *1249:B2 6.07232e-05
21 *1409:RESET_B *1339:A1 1.76135e-05
22 *1409:RESET_B *212:33 0.000150625
23 *1249:A2 *1367:RESET_B 1.65169e-05
24 *1274:B1 *1367:RESET_B 0.000456292
25 *1274:C1 *1395:RESET_B 0.000184745
26 *1274:C1 *180:37 0
27 *1274:D1 *1367:RESET_B 9.41642e-05
28 *1318:A0 *180:25 9.41642e-05
29 *1318:S *180:25 7.02611e-05
30 *1365:D *1365:RESET_B 0.000128154
31 *1395:D *1367:RESET_B 0
32 *1409:D *180:25 9.3111e-05
33 *1411:D *1411:RESET_B 6.05161e-06
34 *103:35 *1411:RESET_B 9.51097e-06
35 *103:35 *180:25 0.000195365
36 *142:10 *1367:RESET_B 7.6644e-05
37 *145:20 *1365:RESET_B 0.000254337
38 *171:125 *1367:RESET_B 0.000183435
39 *171:125 *180:37 2.34204e-05
40 *175:50 *1392:RESET_B 7.02611e-05
41 *175:193 *1365:RESET_B 7.65976e-05
*RES
1 *1429:X *1392:RESET_B 13.4875 
2 *1392:RESET_B *180:12 4.5 
3 *180:12 *1409:RESET_B 6.44643 
4 *1409:RESET_B *180:25 13.7589 
5 *180:25 *1411:RESET_B 0.901786 
6 *180:25 *180:37 5.53571 
7 *180:37 *1395:RESET_B 9.22321 
8 *180:37 *1367:RESET_B 23.7143 
9 *180:12 *1365:RESET_B 13.1786 
*END

*D_NET *181 0.00387502
*CONN
*I *1447:A I *D sky130_fd_sc_hd__clkbuf_2
*I *1461:X O *D sky130_fd_sc_hd__clkbuf_1
*CAP
1 *1447:A 0.00150599
2 *1461:X 0.00150599
3 *1447:A *1236:A_N 7.17432e-05
4 *1447:A *1247:A1 0.000103258
5 *1447:A *188:16 6.27457e-05
6 *1447:A *200:18 0.000497504
7 *1447:A *214:37 8.22793e-06
8 *1303:A0 *1447:A 4.19624e-06
9 *1455:A *1447:A 0.000115369
*RES
1 *1461:X *1447:A 40.5799 
*END

*D_NET *182 0.0122842
*CONN
*I *1368:RESET_B I *D sky130_fd_sc_hd__dfrtp_1
*I *1370:RESET_B I *D sky130_fd_sc_hd__dfrtp_1
*I *1377:RESET_B I *D sky130_fd_sc_hd__dfrtp_1
*I *1369:RESET_B I *D sky130_fd_sc_hd__dfrtp_1
*I *1372:RESET_B I *D sky130_fd_sc_hd__dfrtp_1
*I *1373:RESET_B I *D sky130_fd_sc_hd__dfrtp_1
*I *1384:RESET_B I *D sky130_fd_sc_hd__dfrtp_1
*I *1385:RESET_B I *D sky130_fd_sc_hd__dfrtp_1
*I *1374:RESET_B I *D sky130_fd_sc_hd__dfrtp_1
*I *1375:RESET_B I *D sky130_fd_sc_hd__dfrtp_1
*I *1430:X O *D sky130_fd_sc_hd__clkbuf_4
*CAP
1 *1368:RESET_B 0.000269135
2 *1370:RESET_B 0
3 *1377:RESET_B 3.56009e-05
4 *1369:RESET_B 3.41214e-05
5 *1372:RESET_B 0.000226939
6 *1373:RESET_B 8.24967e-05
7 *1384:RESET_B 1.43138e-05
8 *1385:RESET_B 3.03492e-05
9 *1374:RESET_B 5.09594e-05
10 *1375:RESET_B 0
11 *1430:X 0.000155358
12 *182:106 0.00073603
13 *182:92 0.000806518
14 *182:63 0.000672105
15 *182:57 0.00102331
16 *182:47 0.000854257
17 *182:33 0.000643789
18 *182:29 0.00077396
19 *182:19 0.000380985
20 *182:10 0.000415458
21 *1368:RESET_B *208:54 0.000469469
22 *1369:RESET_B *1384:CLK 5.09296e-05
23 *1372:RESET_B *1293:A1 0
24 *1372:RESET_B *191:12 0
25 *1377:RESET_B *256:12 4.96155e-05
26 *1385:RESET_B *191:62 2.29097e-05
27 *182:10 *202:8 3.40128e-05
28 *182:10 *209:106 7.02611e-05
29 *182:10 *254:12 9.71197e-05
30 *182:19 *202:8 3.06406e-05
31 *182:33 *191:62 4.87953e-05
32 *182:47 *1308:A1 0.000128496
33 *182:47 *191:90 1.17968e-05
34 *182:47 *263:6 0.000186662
35 *182:57 *1384:CLK 3.18747e-05
36 *182:57 *248:8 1.15813e-05
37 *182:63 *1384:CLK 1.93395e-05
38 *182:63 *191:10 0
39 *182:63 *191:12 0
40 *182:63 *191:43 3.14163e-05
41 *182:92 *196:77 0
42 *182:92 *208:31 0
43 *182:92 *208:54 0
44 *182:106 *194:19 7.3237e-05
45 *182:106 *208:54 0.000175512
46 *182:106 *256:12 9.66073e-06
47 *1245:B1 *1372:RESET_B 0
48 *1289:A0 *1372:RESET_B 3.34366e-05
49 *1289:A0 *182:63 0.000417177
50 *1293:A0 *182:47 0.000139907
51 *1293:S *1372:RESET_B 0
52 *1295:S *182:19 3.69865e-05
53 *1295:S *182:29 4.03318e-05
54 *1295:S *182:92 2.19778e-05
55 *1296:S *182:10 0
56 *1296:S *182:19 0.000100152
57 *1298:A0 *1368:RESET_B 0.000286601
58 *1299:A0 *182:47 0.000245356
59 *1308:S *182:47 2.59355e-05
60 *1309:S *182:47 0.00022117
61 *1368:D *1368:RESET_B 4.57445e-05
62 *1369:D *182:63 2.8266e-06
63 *1373:D *1373:RESET_B 1.9132e-05
64 *1374:D *182:19 4.1331e-06
65 *1374:D *182:29 3.15645e-05
66 *1374:D *182:33 0.000140933
67 *1384:D *1384:RESET_B 2.29097e-05
68 *1384:D *182:47 9.61553e-05
69 *1384:D *182:57 0.00020661
70 *1449:A *1372:RESET_B 0.00022287
71 *95:42 *182:19 0
72 *95:42 *182:29 0
73 *95:42 *182:92 0
74 *99:55 *182:10 0.000106141
75 *101:24 *182:10 0.000180239
76 *147:40 *1374:RESET_B 2.52796e-05
77 *148:14 *182:92 0
78 *148:32 *1368:RESET_B 0
79 *150:18 *182:47 5.66157e-05
80 *173:63 *1372:RESET_B 7.252e-05
81 *173:63 *1373:RESET_B 5.52302e-05
82 *176:28 *182:47 1.02821e-05
83 *176:28 *182:106 9.25014e-06
84 *176:62 *1368:RESET_B 0.000481441
85 *176:62 *182:106 0.000166262
*RES
1 *1430:X *182:10 18.7643 
2 *182:10 *1375:RESET_B 4.5 
3 *182:10 *182:19 5.51786 
4 *182:19 *1374:RESET_B 5.38393 
5 *182:19 *182:29 1.64286 
6 *182:29 *182:33 10.7857 
7 *182:33 *1385:RESET_B 0.473214 
8 *182:33 *182:47 16.6964 
9 *182:47 *1384:RESET_B 0.473214 
10 *182:47 *182:57 8.35714 
11 *182:57 *182:63 11.9643 
12 *182:63 *1373:RESET_B 5.91964 
13 *182:63 *1372:RESET_B 9.48214 
14 *182:57 *1369:RESET_B 1.3125 
15 *182:29 *182:92 9.78571 
16 *182:92 *1377:RESET_B 0.883929 
17 *182:92 *182:106 12.0179 
18 *182:106 *1370:RESET_B 4.5 
19 *182:106 *1368:RESET_B 14.3393 
*END

*D_NET *183 0.0063113
*CONN
*I *1379:RESET_B I *D sky130_fd_sc_hd__dfrtp_1
*I *1387:RESET_B I *D sky130_fd_sc_hd__dfrtp_1
*I *1386:RESET_B I *D sky130_fd_sc_hd__dfrtp_1
*I *1371:RESET_B I *D sky130_fd_sc_hd__dfrtp_1
*I *1383:RESET_B I *D sky130_fd_sc_hd__dfrtp_1
*I *1382:RESET_B I *D sky130_fd_sc_hd__dfrtp_1
*I *1431:X O *D sky130_fd_sc_hd__clkbuf_2
*CAP
1 *1379:RESET_B 0.000136737
2 *1387:RESET_B 6.25893e-05
3 *1386:RESET_B 6.29647e-05
4 *1371:RESET_B 0.00029935
5 *1383:RESET_B 6.83052e-05
6 *1382:RESET_B 0.00046035
7 *1431:X 0
8 *183:61 0.000678385
9 *183:28 0.000454667
10 *183:16 0.0012221
11 *183:12 0.000830411
12 *183:4 0.000571771
13 *1371:RESET_B *1386:CLK 0
14 *1379:RESET_B *1268:A1 0
15 *1379:RESET_B *1379:CLK 0
16 *1383:RESET_B *262:6 6.05161e-06
17 *1386:RESET_B *1256:A1 2.81497e-05
18 *1386:RESET_B *1256:B2 0
19 *183:12 *1256:A1 7.91064e-07
20 *183:16 *1256:A1 5.18883e-05
21 *183:16 *1386:CLK 9.63925e-05
22 *183:16 *1421:A 2.79421e-05
23 *183:61 *1268:A1 0
24 *183:61 *1379:CLK 0
25 *183:61 *1431:A 7.15846e-05
26 *183:61 *266:14 0
27 *1289:S *1371:RESET_B 0.000197991
28 *1289:S *1382:RESET_B 0.00022117
29 *1289:S *183:28 0.000148903
30 *1371:D *1371:RESET_B 0
31 *1383:D *1383:RESET_B 0.000178516
32 *1387:D *183:61 4.57445e-05
33 *1475:A *183:61 1.00073e-05
34 *100:50 *183:61 0.000215692
35 *150:14 *183:12 3.92854e-05
36 *150:14 *183:61 0
37 *172:35 *1382:RESET_B 0.00012357
*RES
1 *1431:X *183:4 9.3 
2 *183:4 *183:12 10.5714 
3 *183:12 *183:16 12.4286 
4 *183:16 *1382:RESET_B 12.7589 
5 *183:16 *183:28 1.94643 
6 *183:28 *1383:RESET_B 6.20536 
7 *183:28 *1371:RESET_B 10.4464 
8 *183:12 *1386:RESET_B 1.50893 
9 *183:4 *183:61 12.875 
10 *183:61 *1387:RESET_B 5.38393 
11 *183:61 *1379:RESET_B 6.80357 
*END

*D_NET *184 0.0135182
*CONN
*I *1356:RESET_B I *D sky130_fd_sc_hd__dfrtp_1
*I *1388:RESET_B I *D sky130_fd_sc_hd__dfrtp_1
*I *1389:RESET_B I *D sky130_fd_sc_hd__dfrtp_1
*I *1390:RESET_B I *D sky130_fd_sc_hd__dfrtp_1
*I *1378:RESET_B I *D sky130_fd_sc_hd__dfrtp_1
*I *1394:RESET_B I *D sky130_fd_sc_hd__dfrtp_1
*I *1391:RESET_B I *D sky130_fd_sc_hd__dfrtp_1
*I *1361:RESET_B I *D sky130_fd_sc_hd__dfrtp_1
*I *1357:RESET_B I *D sky130_fd_sc_hd__dfrtp_1
*I *1393:RESET_B I *D sky130_fd_sc_hd__dfrtp_1
*I *1432:X O *D sky130_fd_sc_hd__clkbuf_4
*CAP
1 *1356:RESET_B 0.000421412
2 *1388:RESET_B 0.000388394
3 *1389:RESET_B 1.91209e-05
4 *1390:RESET_B 4.65647e-05
5 *1378:RESET_B 0.000145884
6 *1394:RESET_B 0.000163663
7 *1391:RESET_B 0.00114787
8 *1361:RESET_B 0.000361972
9 *1357:RESET_B 0
10 *1393:RESET_B 0.000191084
11 *1432:X 0.000179691
12 *184:109 0.000926117
13 *184:89 0.000482146
14 *184:72 0.00119069
15 *184:48 0.000855111
16 *184:42 0.000690539
17 *184:20 0.00040015
18 *184:8 0.000557727
19 *1356:RESET_B *1364:RESET_B 3.79467e-05
20 *1356:RESET_B *185:25 1.46624e-05
21 *1356:RESET_B *186:66 0
22 *1361:RESET_B *186:66 0.000363933
23 *1378:RESET_B *194:19 0.000137875
24 *1388:RESET_B *194:43 8.93931e-05
25 *1388:RESET_B *267:10 0.00013324
26 *1390:RESET_B *1315:A1 0.000134714
27 *1390:RESET_B *194:19 9.62151e-05
28 *1391:RESET_B *194:81 5.52302e-05
29 *1391:RESET_B *204:20 1.92905e-05
30 *1393:RESET_B *186:49 1.76135e-05
31 *1393:RESET_B *186:66 4.00025e-05
32 *1393:RESET_B *272:8 0.000130739
33 *1394:RESET_B *1320:A1 9.46929e-05
34 *184:8 *1432:A 3.67257e-05
35 *184:20 *186:66 0.00015643
36 *184:42 *216:14 6.81335e-05
37 *184:48 *186:66 0
38 *184:48 *194:81 0.000211249
39 *184:48 *204:20 2.77143e-05
40 *184:48 *216:14 7.83659e-05
41 *184:72 *1320:A1 0.000255058
42 *184:72 *194:87 8.45399e-05
43 *184:89 *1259:A1 0.000103267
44 *184:109 *186:66 0
45 *1244:B2 *1356:RESET_B 5.83304e-05
46 *1264:B *184:89 0.00010326
47 *1277:B *1391:RESET_B 4.60051e-05
48 *1279:A0 *184:48 0.000175892
49 *1279:S *184:48 0.00021705
50 *1283:A0 *1356:RESET_B 0.00032246
51 *1283:S *1356:RESET_B 2.1527e-05
52 *1320:S *184:72 6.95112e-05
53 *88:12 *1394:RESET_B 0.000105696
54 *88:12 *184:89 0.000168203
55 *92:27 *1394:RESET_B 5.89612e-05
56 *92:36 *184:89 0
57 *97:35 *184:89 0.000121203
58 *112:12 *1391:RESET_B 0.000193118
59 *121:14 *1391:RESET_B 2.61337e-05
60 *142:10 *184:72 0.000100969
61 *145:20 *1356:RESET_B 8.12097e-05
62 *145:20 *184:109 8.89289e-05
63 *166:10 *1391:RESET_B 0.000692491
64 *166:10 *184:72 4.35436e-05
65 *175:193 *1356:RESET_B 0
66 *175:193 *1361:RESET_B 0
67 *175:193 *1393:RESET_B 0
68 *175:193 *184:20 0
69 *175:193 *184:48 0.000220441
70 *175:193 *184:109 4.80729e-05
*RES
1 *1432:X *184:8 15.9786 
2 *184:8 *1393:RESET_B 8.36607 
3 *184:8 *184:20 3.76786 
4 *184:20 *1357:RESET_B 4.5 
5 *184:20 *1361:RESET_B 10.1429 
6 *1361:RESET_B *184:42 7.34821 
7 *184:42 *184:48 14.0536 
8 *184:48 *1391:RESET_B 18.7232 
9 *1391:RESET_B *184:72 20.2768 
10 *184:72 *1394:RESET_B 12.1071 
11 *184:72 *184:89 16.7143 
12 *184:89 *1378:RESET_B 2.52679 
13 *184:89 *1390:RESET_B 1.70536 
14 *184:48 *1389:RESET_B 0.366071 
15 *184:42 *184:109 2.85714 
16 *184:109 *1388:RESET_B 10.7232 
17 *184:109 *1356:RESET_B 14.3393 
*END

*D_NET *185 0.0103702
*CONN
*I *1359:RESET_B I *D sky130_fd_sc_hd__dfrtp_1
*I *1376:RESET_B I *D sky130_fd_sc_hd__dfrtp_1
*I *1358:RESET_B I *D sky130_fd_sc_hd__dfrtp_1
*I *1362:RESET_B I *D sky130_fd_sc_hd__dfrtp_1
*I *1366:RESET_B I *D sky130_fd_sc_hd__dfrtp_1
*I *1363:RESET_B I *D sky130_fd_sc_hd__dfrtp_1
*I *1360:RESET_B I *D sky130_fd_sc_hd__dfrtp_1
*I *1364:RESET_B I *D sky130_fd_sc_hd__dfrtp_1
*I *1433:X O *D sky130_fd_sc_hd__buf_2
*CAP
1 *1359:RESET_B 6.90701e-06
2 *1376:RESET_B 0.000249464
3 *1358:RESET_B 0.000837421
4 *1362:RESET_B 6.36435e-06
5 *1366:RESET_B 0.00019731
6 *1363:RESET_B 0.000830773
7 *1360:RESET_B 0
8 *1364:RESET_B 3.85487e-05
9 *1433:X 7.26505e-05
10 *185:77 0.00116651
11 *185:52 0.000955652
12 *185:44 0.00132363
13 *185:25 0.00135695
14 *185:8 0.000637373
15 *1358:RESET_B *195:29 9.80639e-05
16 *1358:RESET_B *195:46 9.18348e-05
17 *1359:RESET_B *195:46 1.12381e-05
18 *1362:RESET_B *186:76 1.4782e-05
19 *1364:RESET_B *186:66 0.000103253
20 *1366:RESET_B *1265:A1 0.000181796
21 *1366:RESET_B *186:76 9.58593e-05
22 *1366:RESET_B *205:35 9.96331e-05
23 *1376:RESET_B *1358:CLK 3.18676e-05
24 *1376:RESET_B *195:25 6.70877e-05
25 *1376:RESET_B *195:29 8.40564e-05
26 *185:8 *243:12 9.60939e-05
27 *185:25 *1219:B2 0.000312209
28 *185:25 *1243:B1_N 0
29 *185:25 *1356:CLK 0
30 *185:25 *186:66 5.41794e-05
31 *185:25 *186:76 0.000134539
32 *185:25 *204:24 0
33 *185:25 *204:63 0
34 *185:25 *215:10 0
35 *185:25 *243:12 0.000140933
36 *185:52 *186:76 1.20135e-05
37 *185:52 *195:52 0
38 *185:52 *195:54 0
39 *185:52 *207:132 0
40 *185:77 *195:46 5.29658e-05
41 *185:77 *195:52 0
42 *1242:B *185:52 7.6644e-05
43 *1244:B1 *185:25 0
44 *1276:A1 *1363:RESET_B 2.58856e-05
45 *1276:A1 *185:77 0.000126439
46 *1283:S *185:25 0.000183726
47 *1356:RESET_B *1364:RESET_B 3.79467e-05
48 *1356:RESET_B *185:25 1.46624e-05
49 *1360:D *185:25 4.57445e-05
50 *1362:D *185:52 0.000130741
51 *1363:D *185:52 0
52 *1474:A *185:77 0.000119618
53 *97:35 *1366:RESET_B 5.98293e-05
54 *169:12 *1366:RESET_B 5.99125e-05
55 *175:193 *185:25 0.000127119
*RES
1 *1433:X *185:8 14.7464 
2 *185:8 *1364:RESET_B 5.83929 
3 *185:8 *185:25 21.9821 
4 *185:25 *1360:RESET_B 4.5 
5 *185:25 *1363:RESET_B 15.0804 
6 *1363:RESET_B *185:44 4.5 
7 *185:44 *185:52 15.7679 
8 *185:52 *1366:RESET_B 15.0536 
9 *185:52 *1362:RESET_B 0.473214 
10 *185:44 *185:77 13.3393 
11 *185:77 *1358:RESET_B 9.32589 
12 *1358:RESET_B *1376:RESET_B 4.92857 
13 *185:77 *1359:RESET_B 0.473214 
*END

*D_NET *186 0.0250783
*CONN
*I *1433:A I *D sky130_fd_sc_hd__buf_2
*I *1430:A I *D sky130_fd_sc_hd__clkbuf_4
*I *1427:A I *D sky130_fd_sc_hd__buf_2
*I *1431:A I *D sky130_fd_sc_hd__clkbuf_2
*I *1432:A I *D sky130_fd_sc_hd__clkbuf_4
*I *1429:A I *D sky130_fd_sc_hd__clkbuf_2
*I *1428:A I *D sky130_fd_sc_hd__clkbuf_4
*I *1426:A I *D sky130_fd_sc_hd__clkbuf_4
*I *1434:X O *D sky130_fd_sc_hd__buf_2
*CAP
1 *1433:A 0.000107237
2 *1430:A 0
3 *1427:A 0.000687067
4 *1431:A 0.00062871
5 *1432:A 4.63321e-05
6 *1429:A 6.46601e-05
7 *1428:A 0
8 *1426:A 0.00117187
9 *1434:X 0
10 *186:91 0.00128803
11 *186:76 0.00278361
12 *186:66 0.00263293
13 *186:49 0.00153559
14 *186:38 0.00155612
15 *186:8 0.00131853
16 *186:4 0.00112061
17 *1426:A *1260:A1 9.76491e-05
18 *1426:A *1402:CLK 9.90367e-05
19 *1427:A *1211:B 0.00012544
20 *1427:A *1217:A_N 0.000321738
21 *1427:A *1437:A 9.90431e-05
22 *1427:A *201:92 2.74584e-05
23 *1427:A *201:105 6.04551e-05
24 *1427:A *201:122 0
25 *1427:A *254:12 0.000175512
26 *1431:A *204:93 8.83221e-05
27 *1433:A *243:12 5.04705e-05
28 *186:8 *1424:A 0.000186669
29 *186:8 *212:8 3.14078e-05
30 *186:38 *1338:A1 0.000246057
31 *186:38 *1423:A 0.000609054
32 *186:38 *1434:A 0.000175493
33 *186:38 *212:8 2.07491e-05
34 *186:49 *1249:A1 0.000107503
35 *186:49 *1423:A 2.31791e-05
36 *186:49 *244:8 4.8936e-05
37 *186:66 *243:12 0
38 *186:76 *1219:B2 0.000113298
39 *186:76 *1265:A1 1.15172e-05
40 *186:76 *1280:A1 0.000270326
41 *186:76 *1366:CLK 4.14279e-05
42 *186:76 *243:12 1.21258e-05
43 *186:91 *196:90 0.000284977
44 *186:91 *249:10 3.25247e-05
45 *186:91 *253:10 0.00010326
46 *1216:S *1427:A 3.34366e-05
47 *1242:B *186:76 0.000401758
48 *1244:B1 *186:76 0.00010096
49 *1255:A2 *186:66 5.31638e-05
50 *1257:B1 *186:91 0
51 *1258:A2 *186:91 3.21021e-05
52 *1258:C1 *186:91 0.000143044
53 *1269:A2 *1427:A 1.00375e-05
54 *1269:A2 *186:91 1.59689e-05
55 *1269:B1 *1427:A 3.14964e-05
56 *1280:S *186:76 0.000402777
57 *1283:S *186:76 0.000183726
58 *1295:A0 *186:91 7.50697e-05
59 *1329:A0 *186:38 0
60 *1338:A0 *186:38 0
61 *1355:D *1427:A 2.89114e-05
62 *1356:RESET_B *186:66 0
63 *1357:D *186:66 0.000153047
64 *1361:RESET_B *186:66 0.000363933
65 *1362:D *186:76 0.00010326
66 *1362:RESET_B *186:76 1.4782e-05
67 *1364:RESET_B *186:66 0.000103253
68 *1366:RESET_B *186:76 9.58593e-05
69 *1392:RESET_B *1429:A 6.05161e-06
70 *1393:RESET_B *186:49 1.76135e-05
71 *1393:RESET_B *186:66 4.00025e-05
72 *1400:D *1426:A 0.00010096
73 *1400:RESET_B *1426:A 0
74 *1400:RESET_B *186:38 0
75 *1402:RESET_B *1426:A 0.000214518
76 *1459:A *186:38 0
77 *1472:A *186:66 7.57869e-05
78 *1475:A *1431:A 0.000620822
79 *92:42 *1431:A 0.000390994
80 *92:42 *186:76 0.000532305
81 *99:55 *186:91 9.87983e-06
82 *106:35 *1427:A 0.000122407
83 *140:12 *1427:A 0.00013073
84 *142:10 *186:76 7.80714e-06
85 *144:29 *186:76 0.000225609
86 *154:19 *1426:A 8.27403e-05
87 *154:21 *1426:A 3.34672e-05
88 *167:10 *1427:A 5.51502e-05
89 *167:31 *1427:A 2.72545e-05
90 *167:31 *186:91 0.000157015
91 *169:33 *186:76 3.34295e-05
92 *172:50 *186:91 0.000133243
93 *172:52 *186:91 6.7257e-05
94 *174:44 *186:49 0
95 *175:193 *186:49 0
96 *176:28 *186:91 0.000295851
97 *176:62 *186:91 0.000480434
98 *179:97 *186:38 0
99 *183:61 *1431:A 7.15846e-05
100 *184:8 *1432:A 3.67257e-05
101 *184:20 *186:66 0.00015643
102 *184:48 *186:66 0
103 *184:109 *186:66 0
104 *185:25 *186:66 5.41794e-05
105 *185:25 *186:76 0.000134539
106 *185:52 *186:76 1.20135e-05
*RES
1 *1434:X *186:4 9.3 
2 *186:4 *186:8 3.01786 
3 *186:8 *1426:A 40.3179 
4 *186:8 *1428:A 9.3 
5 *186:4 *186:38 23.3214 
6 *186:38 *1429:A 14.7464 
7 *186:38 *186:49 10.1429 
8 *186:49 *1432:A 14.7464 
9 *186:49 *186:66 25.7321 
10 *186:66 *186:76 40.875 
11 *186:76 *1431:A 23.0143 
12 *186:76 *186:91 23.4464 
13 *186:91 *1427:A 29.7821 
14 *186:91 *1430:A 13.8 
15 *186:66 *1433:A 11.3893 
*END

*D_NET *187 0.0118586
*CONN
*I *1398:CLK I *D sky130_fd_sc_hd__dfrtp_1
*I *1416:CLK I *D sky130_fd_sc_hd__dfrtp_1
*I *1415:CLK I *D sky130_fd_sc_hd__dfrtp_1
*I *1414:CLK I *D sky130_fd_sc_hd__dfrtp_1
*I *1353:CLK I *D sky130_fd_sc_hd__dfrtp_1
*I *1413:CLK I *D sky130_fd_sc_hd__dfrtp_1
*I *1412:CLK I *D sky130_fd_sc_hd__dfrtp_1
*I *1404:CLK I *D sky130_fd_sc_hd__dfrtp_1
*I *1396:CLK I *D sky130_fd_sc_hd__dfrtp_1
*I *1418:CLK I *D sky130_fd_sc_hd__dfrtp_1
*I *1435:X O *D sky130_fd_sc_hd__clkbuf_2
*CAP
1 *1398:CLK 0
2 *1416:CLK 0.000355187
3 *1415:CLK 0
4 *1414:CLK 0.00066306
5 *1353:CLK 0.000300417
6 *1413:CLK 1.79896e-05
7 *1412:CLK 3.01057e-05
8 *1404:CLK 0.000391321
9 *1396:CLK 2.23854e-05
10 *1418:CLK 0.000236157
11 *1435:X 0
12 *187:78 0.000734082
13 *187:74 0.00119475
14 *187:70 0.000517646
15 *187:59 0.000469805
16 *187:44 0.000550367
17 *187:42 0.00112778
18 *187:29 0.00130936
19 *187:23 0.000786915
20 *187:4 0.000387708
21 *1353:CLK *207:18 0.000375596
22 *1412:CLK *1323:A1 1.78649e-05
23 *1414:CLK *234:10 1.15172e-05
24 *1416:CLK *1322:A 0.000168197
25 *1418:CLK *1435:A 0
26 *187:23 *1435:A 3.69047e-06
27 *187:70 *1237:A1 0.000160365
28 *187:70 *1323:A1 8.86947e-05
29 *187:78 *1343:A1 0
30 *187:78 *207:18 0.000335215
31 *1323:A0 *1404:CLK 2.69729e-05
32 *1323:A0 *187:42 1.10909e-05
33 *1323:A0 *187:44 2.65676e-05
34 *1325:S *187:29 4.51228e-05
35 *1325:S *187:42 4.61914e-05
36 *1333:S *187:78 0
37 *1396:RESET_B *187:42 9.1736e-05
38 *1404:D *1404:CLK 0.000289386
39 *1404:D *187:44 7.85137e-05
40 *1412:RESET_B *187:70 2.51837e-05
41 *1413:D *187:78 0
42 *1415:D *187:78 0.000127439
43 *1415:RESET_B *1414:CLK 3.14163e-05
44 *1416:D *1416:CLK 2.84109e-05
45 *1418:D *1418:CLK 3.79467e-05
46 *107:30 *1416:CLK 0.00010633
47 *110:59 *1413:CLK 2.89114e-05
48 *111:26 *1413:CLK 1.92905e-05
49 *153:12 *1416:CLK 0
50 *173:12 *1353:CLK 0.000102207
51 *177:12 *1414:CLK 6.4443e-05
52 *177:34 *1414:CLK 6.09968e-05
53 *177:34 *187:70 0.000139907
54 *177:34 *187:74 9.00795e-06
55 *177:62 *187:78 0
56 *177:80 *1416:CLK 0.000205358
*RES
1 *1435:X *187:4 9.3 
2 *187:4 *1418:CLK 22.4071 
3 *187:4 *187:23 6.98214 
4 *187:23 *187:29 14.7857 
5 *187:29 *1396:CLK 9.72857 
6 *187:29 *187:42 12.4464 
7 *187:42 *187:44 2.55357 
8 *187:44 *1404:CLK 21.0857 
9 *187:44 *187:59 5.23214 
10 *187:59 *1412:CLK 9.83571 
11 *187:59 *187:70 8.35714 
12 *187:70 *187:74 1.67857 
13 *187:74 *187:78 12.5179 
14 *187:78 *1413:CLK 14.3357 
15 *187:78 *1353:CLK 20.55 
16 *187:74 *1414:CLK 17.9607 
17 *187:70 *1415:CLK 9.3 
18 *187:42 *1416:CLK 21.6929 
19 *187:23 *1398:CLK 13.8 
*END

*D_NET *188 0.00950667
*CONN
*I *1381:CLK I *D sky130_fd_sc_hd__dfrtp_1
*I *1397:CLK I *D sky130_fd_sc_hd__dfrtp_1
*I *1417:CLK I *D sky130_fd_sc_hd__dfrtp_1
*I *1380:CLK I *D sky130_fd_sc_hd__dfrtp_1
*I *1399:CLK I *D sky130_fd_sc_hd__dfrtp_1
*I *1352:CLK I *D sky130_fd_sc_hd__dfrtp_1
*I *1405:CLK I *D sky130_fd_sc_hd__dfrtp_1
*I *1419:CLK I *D sky130_fd_sc_hd__dfrtp_1
*I *1436:X O *D sky130_fd_sc_hd__clkbuf_2
*CAP
1 *1381:CLK 0.000122424
2 *1397:CLK 3.72704e-05
3 *1417:CLK 0
4 *1380:CLK 0.000521577
5 *1399:CLK 0
6 *1352:CLK 0.000323937
7 *1405:CLK 0
8 *1419:CLK 0.000176121
9 *1436:X 0.000190808
10 *188:67 0.000545559
11 *188:47 0.000713636
12 *188:39 0.000796625
13 *188:24 0.00118796
14 *188:20 0.000906555
15 *188:16 0.000539697
16 *188:14 0.000537993
17 *1352:CLK *1247:B2 0.000198738
18 *1380:CLK *1236:C 0.000234608
19 *1380:CLK *1236:D 0.00010415
20 *1380:CLK *1246:B2 0
21 *1380:CLK *1349:A1 0
22 *1380:CLK *200:18 1.90936e-05
23 *1380:CLK *209:33 5.33005e-05
24 *1380:CLK *214:37 0
25 *1419:CLK *1435:A 0
26 *188:14 *192:12 9.80173e-05
27 *188:16 *1435:A 0
28 *188:20 *1435:A 0
29 *188:47 *1349:A1 0
30 *188:67 *1349:A1 0
31 *1303:A0 *1352:CLK 0.000270943
32 *1326:S *188:47 7.57394e-05
33 *1349:S *1419:CLK 0
34 *1380:RESET_B *1380:CLK 5.33005e-05
35 *1397:D *188:20 0
36 *1399:D *188:47 2.1768e-05
37 *1405:RESET_B *1352:CLK 2.81497e-05
38 *1417:D *188:20 4.1331e-06
39 *1417:RESET_B *188:24 1.25672e-06
40 *1417:RESET_B *188:39 1.27848e-05
41 *1447:A *188:16 6.27457e-05
42 *1455:A *188:14 0.000105518
43 *1455:A *188:16 2.28541e-05
44 *1460:A *188:14 0.000139739
45 *1461:A *1381:CLK 6.05161e-06
46 *1461:A *188:14 0
47 *1461:A *188:16 0
48 *107:18 *1380:CLK 0
49 *173:22 *1419:CLK 8.00806e-05
50 *173:33 *1419:CLK 0.000103983
51 *173:46 *1380:CLK 0
52 *175:68 *1352:CLK 2.59355e-05
53 *175:70 *1352:CLK 5.66157e-05
54 *178:20 *1352:CLK 4.9661e-05
55 *178:28 *1352:CLK 0.000111442
56 *178:28 *188:47 0.000630561
57 *178:47 *1380:CLK 3.17067e-05
58 *178:47 *188:47 0.000134557
59 *178:47 *188:67 3.65046e-05
60 *178:49 *188:39 0.000132577
*RES
1 *1436:X *188:14 18.3714 
2 *188:14 *188:16 4.67857 
3 *188:16 *188:20 9.48214 
4 *188:20 *188:24 7.42857 
5 *188:24 *1419:CLK 22.3714 
6 *188:24 *188:39 9.55357 
7 *188:39 *188:47 13.9821 
8 *188:47 *1405:CLK 9.3 
9 *188:47 *1352:CLK 27.6214 
10 *188:39 *188:67 0.732143 
11 *188:67 *1399:CLK 13.8 
12 *188:67 *1380:CLK 24.175 
13 *188:20 *1417:CLK 9.3 
14 *188:16 *1397:CLK 14.3357 
15 *188:14 *1381:CLK 15.5857 
*END

*D_NET *189 0.0113596
*CONN
*I *1354:CLK I *D sky130_fd_sc_hd__dfrtp_1
*I *1403:CLK I *D sky130_fd_sc_hd__dfrtp_1
*I *1400:CLK I *D sky130_fd_sc_hd__dfrtp_1
*I *1408:CLK I *D sky130_fd_sc_hd__dfrtp_1
*I *1410:CLK I *D sky130_fd_sc_hd__dfrtp_1
*I *1401:CLK I *D sky130_fd_sc_hd__dfrtp_1
*I *1402:CLK I *D sky130_fd_sc_hd__dfrtp_1
*I *1406:CLK I *D sky130_fd_sc_hd__dfrtp_1
*I *1407:CLK I *D sky130_fd_sc_hd__dfrtp_1
*I *1355:CLK I *D sky130_fd_sc_hd__dfrtp_1
*I *1437:X O *D sky130_fd_sc_hd__clkbuf_2
*CAP
1 *1354:CLK 7.0288e-05
2 *1403:CLK 2.1819e-05
3 *1400:CLK 0
4 *1408:CLK 0.000164821
5 *1410:CLK 4.11027e-05
6 *1401:CLK 5.89736e-05
7 *1402:CLK 0.000208111
8 *1406:CLK 0
9 *1407:CLK 0.000353986
10 *1355:CLK 5.68584e-05
11 *1437:X 7.14496e-05
12 *189:101 0.000324655
13 *189:88 0.000610376
14 *189:71 0.000640783
15 *189:69 0.000657074
16 *189:53 0.00153583
17 *189:27 0.00155927
18 *189:21 0.000739282
19 *189:8 0.000448953
20 *1403:CLK *1260:A1 2.31791e-05
21 *1403:CLK *1271:B2 3.17163e-05
22 *1407:CLK *1260:B2 0
23 *1407:CLK *1345:A1 0
24 *1407:CLK *207:51 0
25 *1408:CLK *1234:A1 4.51495e-05
26 *1408:CLK *1234:B2 5.52302e-05
27 *1408:CLK *1422:A 0.000244468
28 *1408:CLK *206:24 3.67257e-05
29 *1410:CLK *1422:A 0.000102197
30 *1410:CLK *206:24 7.15846e-05
31 *189:21 *1248:B2 0.000357132
32 *189:27 *1248:B2 0.000148926
33 *189:27 *1344:A1 0.000290286
34 *189:27 *207:45 3.67142e-05
35 *189:53 *1260:A1 7.83659e-05
36 *189:53 *1271:B2 3.69697e-05
37 *189:53 *1336:A0 1.20814e-05
38 *189:53 *207:8 0
39 *189:53 *207:45 1.70865e-05
40 *189:53 *225:12 0.000130741
41 *189:69 *1271:B2 0
42 *189:69 *1331:A0 0.00010685
43 *189:69 *1331:A1 7.83587e-05
44 *189:88 *1234:B2 0
45 *189:88 *1331:A0 0
46 *1214:A0 *189:21 8.37064e-05
47 *1215:S *189:21 0
48 *1216:S *189:8 0
49 *1216:S *189:21 0
50 *1234:A2 *1408:CLK 5.33005e-05
51 *1241:C1 *1401:CLK 0.000142856
52 *1241:C1 *189:101 5.03787e-05
53 *1260:A2 *1403:CLK 4.46186e-06
54 *1328:A0 *1402:CLK 0
55 *1328:A0 *189:88 0
56 *1331:S *189:69 0.000421623
57 *1337:B *189:88 0
58 *1344:A0 *189:21 5.26184e-05
59 *1344:A0 *189:27 0.000152387
60 *1345:A0 *1407:CLK 7.77751e-05
61 *1355:D *1355:CLK 6.05161e-06
62 *1355:D *189:8 3.57163e-05
63 *1400:D *1402:CLK 4.48113e-05
64 *1406:D *1407:CLK 0
65 *1406:D *189:27 0
66 *1406:D *189:53 7.15846e-05
67 *1407:RESET_B *1407:CLK 0
68 *1410:D *189:101 0
69 *1414:D *1407:CLK 5.33882e-05
70 *1426:A *1402:CLK 9.90367e-05
71 *87:17 *1355:CLK 7.77751e-05
72 *87:19 *189:21 0
73 *155:44 *1354:CLK 5.06983e-05
74 *156:16 *1401:CLK 9.71197e-05
75 *156:16 *189:88 8.15939e-05
76 *160:14 *1407:CLK 0
77 *160:29 *189:8 5.57914e-05
78 *160:29 *189:21 0
79 *160:29 *189:27 0
80 *179:16 *189:69 0.000179573
81 *179:20 *1407:CLK 0
*RES
1 *1437:X *189:8 15.7464 
2 *189:8 *1355:CLK 15.1571 
3 *189:8 *189:21 7.64286 
4 *189:21 *189:27 12.8571 
5 *189:27 *1407:CLK 24.6393 
6 *189:27 *1406:CLK 9.3 
7 *189:27 *189:53 15.8393 
8 *189:53 *189:69 25.5 
9 *189:69 *189:71 4.5 
10 *189:71 *1402:CLK 17.3 
11 *189:71 *189:88 8.07143 
12 *189:88 *1401:CLK 15.5679 
13 *189:88 *189:101 6.75 
14 *189:101 *1410:CLK 11.0679 
15 *189:101 *1408:CLK 13.9429 
16 *189:69 *1400:CLK 9.3 
17 *189:53 *1403:CLK 14.5321 
18 *189:21 *1354:CLK 15.1571 
*END

*D_NET *190 0.00623691
*CONN
*I *1367:CLK I *D sky130_fd_sc_hd__dfrtp_1
*I *1365:CLK I *D sky130_fd_sc_hd__dfrtp_1
*I *1409:CLK I *D sky130_fd_sc_hd__dfrtp_1
*I *1392:CLK I *D sky130_fd_sc_hd__dfrtp_1
*I *1395:CLK I *D sky130_fd_sc_hd__dfrtp_1
*I *1411:CLK I *D sky130_fd_sc_hd__dfrtp_1
*I *1438:X O *D sky130_fd_sc_hd__dlymetal6s2s_1
*CAP
1 *1367:CLK 0
2 *1365:CLK 0.000215497
3 *1409:CLK 6.71867e-05
4 *1392:CLK 0
5 *1395:CLK 0
6 *1411:CLK 0.000130404
7 *1438:X 0.000185277
8 *190:49 0.000448206
9 *190:40 0.000528536
10 *190:33 0.000568071
11 *190:16 0.000829249
12 *190:10 0.000679065
13 *1365:CLK *206:129 0.000198698
14 *1365:CLK *206:140 0.000350844
15 *1409:CLK *206:129 0.000197984
16 *1411:CLK *207:78 0.000200406
17 *1411:CLK *207:104 4.73656e-05
18 *190:10 *1226:A 0
19 *190:16 *1226:A 0
20 *190:16 *207:64 0.000102197
21 *190:16 *207:104 0
22 *190:16 *207:117 0
23 *190:33 *207:64 1.98839e-05
24 *190:40 *1274:A1 3.67257e-05
25 *190:49 *271:8 3.63775e-05
26 *1252:A2 *1365:CLK 0.000175636
27 *1252:A2 *1409:CLK 4.98968e-05
28 *1252:B1 *1365:CLK 1.01912e-05
29 *1252:D1 *1365:CLK 4.57445e-05
30 *1270:C1 *190:10 9.90431e-05
31 *1274:A2 *190:40 0.000315158
32 *1274:B1 *190:40 3.18676e-05
33 *1274:C1 *190:33 4.18749e-05
34 *1274:C1 *190:40 0.000114655
35 *1320:S *190:10 0
36 *1321:S *190:16 0
37 *1367:D *190:10 4.1331e-06
38 *1367:D *190:16 5.95088e-05
39 *1392:D *1409:CLK 0.000100823
40 *1392:D *190:49 6.57032e-05
41 *1395:RESET_B *190:33 7.33786e-06
42 *104:12 *1411:CLK 0
43 *104:12 *190:16 0
44 *142:10 *190:40 5.17614e-05
45 *152:25 *1365:CLK 0
46 *169:12 *190:10 0.00015134
47 *175:50 *190:49 7.02611e-05
*RES
1 *1438:X *190:10 17.3 
2 *190:10 *190:16 12.7679 
3 *190:16 *1411:CLK 21.4607 
4 *190:16 *190:33 3.03571 
5 *190:33 *1395:CLK 9.3 
6 *190:33 *190:40 7.92857 
7 *190:40 *1392:CLK 9.3 
8 *190:40 *190:49 7.5 
9 *190:49 *1409:CLK 16.3536 
10 *190:49 *1365:CLK 20.9071 
11 *190:10 *1367:CLK 13.8 
*END

*D_NET *191 0.0110275
*CONN
*I *1384:CLK I *D sky130_fd_sc_hd__dfrtp_1
*I *1368:CLK I *D sky130_fd_sc_hd__dfrtp_1
*I *1370:CLK I *D sky130_fd_sc_hd__dfrtp_1
*I *1377:CLK I *D sky130_fd_sc_hd__dfrtp_1
*I *1374:CLK I *D sky130_fd_sc_hd__dfrtp_1
*I *1375:CLK I *D sky130_fd_sc_hd__dfrtp_1
*I *1385:CLK I *D sky130_fd_sc_hd__dfrtp_1
*I *1369:CLK I *D sky130_fd_sc_hd__dfrtp_1
*I *1373:CLK I *D sky130_fd_sc_hd__dfrtp_1
*I *1372:CLK I *D sky130_fd_sc_hd__dfrtp_1
*I *1439:X O *D sky130_fd_sc_hd__clkbuf_2
*CAP
1 *1384:CLK 8.87379e-05
2 *1368:CLK 0.000627659
3 *1370:CLK 0
4 *1377:CLK 0.000123308
5 *1374:CLK 0.00014618
6 *1375:CLK 0.000199124
7 *1385:CLK 0
8 *1369:CLK 8.45977e-05
9 *1373:CLK 0.000328854
10 *1372:CLK 0.000218963
11 *1439:X 0.000185601
12 *191:105 0.000978955
13 *191:90 0.000623681
14 *191:68 0.000445933
15 *191:62 0.000763663
16 *191:53 0.0010199
17 *191:43 0.000849795
18 *191:34 0.000339709
19 *191:12 0.000854939
20 *191:10 0.000492723
21 *1368:CLK *1268:A1 5.16759e-05
22 *1368:CLK *1301:A0 0
23 *1368:CLK *196:77 0
24 *1368:CLK *208:54 0
25 *1368:CLK *266:14 5.33433e-05
26 *1372:CLK *196:26 0
27 *1375:CLK *1251:B2 0.000123288
28 *1375:CLK *264:8 5.83304e-05
29 *1384:CLK *248:8 2.976e-05
30 *191:10 *196:16 5.52238e-05
31 *191:12 *196:26 0
32 *191:53 *1245:A1 0
33 *191:53 *1289:A1 0
34 *191:68 *264:8 0.000119618
35 *191:105 *196:77 0
36 *1247:C1 *1375:CLK 0
37 *1256:A2 *1368:CLK 5.70022e-05
38 *1287:B *1368:CLK 5.06646e-05
39 *1289:A0 *191:53 0.000154762
40 *1290:S *1368:CLK 0
41 *1299:A0 *191:68 5.81363e-05
42 *1299:A0 *191:90 0.000189455
43 *1369:D *1369:CLK 3.69047e-06
44 *1369:D *191:10 0
45 *1369:D *191:43 0.000123902
46 *1369:RESET_B *1384:CLK 5.09296e-05
47 *1370:D *1368:CLK 0
48 *1372:D *1372:CLK 3.79467e-05
49 *1372:RESET_B *191:12 0
50 *1373:D *1373:CLK 0.000151061
51 *1377:D *191:90 0.00010326
52 *1385:RESET_B *191:62 2.29097e-05
53 *1475:A *1368:CLK 0.000149554
54 *95:42 *1368:CLK 3.43988e-06
55 *95:42 *191:105 0.000199209
56 *100:8 *1375:CLK 1.76039e-05
57 *100:27 *1375:CLK 7.15591e-05
58 *100:42 *1375:CLK 0.000104067
59 *100:42 *191:68 9.82143e-05
60 *100:42 *191:90 0.00013809
61 *100:50 *1368:CLK 0
62 *116:14 *1375:CLK 8.9163e-05
63 *147:40 *1374:CLK 9.05615e-05
64 *150:18 *191:90 2.18733e-05
65 *168:10 *1368:CLK 2.04825e-05
66 *168:25 *1368:CLK 1.31516e-05
67 *173:63 *1372:CLK 0
68 *173:63 *191:12 0
69 *182:33 *191:62 4.87953e-05
70 *182:47 *191:90 1.17968e-05
71 *182:57 *1384:CLK 3.18747e-05
72 *182:63 *1384:CLK 1.93395e-05
73 *182:63 *191:10 0
74 *182:63 *191:12 0
75 *182:63 *191:43 3.14163e-05
*RES
1 *1439:X *191:10 16.5857 
2 *191:10 *191:12 5.58929 
3 *191:12 *1372:CLK 17.8714 
4 *191:12 *1373:CLK 18.3536 
5 *191:10 *191:34 4.5 
6 *191:34 *1369:CLK 10.6571 
7 *191:34 *191:43 5.05357 
8 *191:43 *191:53 17.6607 
9 *191:53 *1385:CLK 9.3 
10 *191:53 *191:62 12.4286 
11 *191:62 *191:68 3.21429 
12 *191:68 *1375:CLK 18.7821 
13 *191:68 *1374:CLK 16.3893 
14 *191:62 *191:90 9.48214 
15 *191:90 *1377:CLK 11.0679 
16 *191:90 *191:105 11 
17 *191:105 *1370:CLK 13.8 
18 *191:105 *1368:CLK 25.1036 
19 *191:43 *1384:CLK 11.4786 
*END

*D_NET *192 0.00549208
*CONN
*I *1445:A I *D sky130_fd_sc_hd__buf_1
*I *1444:A I *D sky130_fd_sc_hd__clkbuf_2
*I *1462:X O *D sky130_fd_sc_hd__buf_1
*CAP
1 *1445:A 0.00111465
2 *1444:A 0
3 *1462:X 0.000347749
4 *192:12 0.0014624
5 *1445:A *1227:A1 0.000216441
6 *1445:A *1229:A_N 4.87953e-05
7 *1445:A *1229:C 9.7659e-05
8 *1445:A *1238:B 5.52302e-05
9 *1445:A *1303:A1 0.000128409
10 *1445:A *197:23 0.0003865
11 *1445:A *197:105 0
12 *1445:A *200:95 0.000266479
13 *1445:A *210:29 8.26612e-05
14 *192:12 *1436:A 5.52238e-05
15 *1227:A2 *1445:A 7.2754e-05
16 *1230:C1 *1445:A 9.59532e-06
17 *1252:B1 *1445:A 2.06178e-05
18 *1303:A0 *1445:A 0.000185118
19 *1304:S *1445:A 0.000225988
20 *1380:D *1445:A 5.20751e-05
21 *1455:A *192:12 0.000150625
22 *1460:A *192:12 5.80706e-06
23 *95:42 *1445:A 8.0089e-05
24 *149:24 *1445:A 4.33899e-05
25 *170:8 *1445:A 1.55885e-05
26 *170:8 *192:12 0.000270212
27 *188:14 *192:12 9.80173e-05
*RES
1 *1462:X *192:12 26.9429 
2 *192:12 *1444:A 9.3 
3 *192:12 *1445:A 43.1214 
*END

*D_NET *193 0.00627257
*CONN
*I *1387:CLK I *D sky130_fd_sc_hd__dfrtp_1
*I *1379:CLK I *D sky130_fd_sc_hd__dfrtp_1
*I *1386:CLK I *D sky130_fd_sc_hd__dfrtp_1
*I *1371:CLK I *D sky130_fd_sc_hd__dfrtp_1
*I *1383:CLK I *D sky130_fd_sc_hd__dfrtp_1
*I *1382:CLK I *D sky130_fd_sc_hd__dfrtp_1
*I *1440:X O *D sky130_fd_sc_hd__buf_1
*CAP
1 *1387:CLK 3.08975e-05
2 *1379:CLK 0.000131741
3 *1386:CLK 0.000432464
4 *1371:CLK 3.82418e-05
5 *1383:CLK 0
6 *1382:CLK 0.000592508
7 *1440:X 0
8 *193:62 0.000352933
9 *193:43 0.00148128
10 *193:32 0.000939215
11 *193:10 0.00101904
12 *193:4 0.000468975
13 *1382:CLK *196:16 0.000129746
14 *1386:CLK *1256:A1 6.03879e-05
15 *1386:CLK *1267:A1 3.56976e-05
16 *1386:CLK *1307:A 0
17 *1386:CLK *204:105 0
18 *1386:CLK *250:10 6.44542e-05
19 *193:10 *196:10 1.78353e-05
20 *193:10 *196:16 0.00015206
21 *193:43 *250:10 1.84657e-05
22 *193:62 *250:10 5.06983e-05
23 *1267:B1 *1386:CLK 9.61993e-05
24 *1289:S *1386:CLK 0
25 *1306:S *1386:CLK 6.33337e-05
26 *1371:RESET_B *1386:CLK 0
27 *1379:RESET_B *1379:CLK 0
28 *183:16 *1386:CLK 9.63925e-05
29 *183:61 *1379:CLK 0
*RES
1 *1440:X *193:4 9.3 
2 *193:4 *193:10 12.2679 
3 *193:10 *1382:CLK 23.1393 
4 *193:10 *1383:CLK 13.8 
5 *193:4 *193:32 0.535714 
6 *193:32 *1371:CLK 10.0321 
7 *193:32 *193:43 10.3036 
8 *193:43 *1386:CLK 28.1393 
9 *193:43 *193:62 3.41071 
10 *193:62 *1379:CLK 20.55 
11 *193:62 *1387:CLK 9.83571 
*END

*D_NET *194 0.01339
*CONN
*I *1356:CLK I *D sky130_fd_sc_hd__dfrtp_1
*I *1361:CLK I *D sky130_fd_sc_hd__dfrtp_1
*I *1389:CLK I *D sky130_fd_sc_hd__dfrtp_1
*I *1394:CLK I *D sky130_fd_sc_hd__dfrtp_1
*I *1391:CLK I *D sky130_fd_sc_hd__dfrtp_1
*I *1357:CLK I *D sky130_fd_sc_hd__dfrtp_1
*I *1393:CLK I *D sky130_fd_sc_hd__dfrtp_1
*I *1388:CLK I *D sky130_fd_sc_hd__dfrtp_1
*I *1390:CLK I *D sky130_fd_sc_hd__dfrtp_1
*I *1378:CLK I *D sky130_fd_sc_hd__dfrtp_1
*I *1441:X O *D sky130_fd_sc_hd__clkbuf_2
*CAP
1 *1356:CLK 0.000516003
2 *1361:CLK 5.73371e-05
3 *1389:CLK 0
4 *1394:CLK 0
5 *1391:CLK 7.3175e-05
6 *1357:CLK 8.64534e-05
7 *1393:CLK 0.000315025
8 *1388:CLK 0.000116585
9 *1390:CLK 0
10 *1378:CLK 0
11 *1441:X 4.47748e-05
12 *194:87 0.000459332
13 *194:81 0.00108041
14 *194:49 0.000445882
15 *194:47 0.000826095
16 *194:45 0.000236905
17 *194:43 0.000760403
18 *194:32 0.000517232
19 *194:19 0.0009094
20 *194:10 0.000705798
21 *1356:CLK *1219:B2 5.26091e-05
22 *1356:CLK *204:20 0
23 *1361:CLK *1451:A 2.59355e-05
24 *1388:CLK *205:25 0.000172745
25 *1393:CLK *1250:A1 8.33655e-05
26 *1393:CLK *206:140 0.000388146
27 *1393:CLK *272:8 0.000107985
28 *194:10 *208:54 8.15939e-05
29 *194:19 *1315:A1 0.000160292
30 *194:32 *1282:A 0.000152409
31 *194:32 *205:19 8.15095e-05
32 *194:43 *267:10 3.22258e-05
33 *194:45 *212:33 0
34 *194:47 *1451:A 0.000137939
35 *194:47 *206:140 5.59013e-05
36 *194:47 *212:33 0
37 *194:49 *206:140 0.00015134
38 *194:81 *268:10 5.33005e-05
39 *194:87 *1320:A1 0.000312215
40 *1244:B1 *1356:CLK 0
41 *1252:D1 *1393:CLK 7.7674e-05
42 *1282:B *1356:CLK 0
43 *1313:S *1356:CLK 0.000208776
44 *1313:S *194:45 5.66157e-05
45 *1314:A0 *1357:CLK 9.7659e-05
46 *1314:S *1393:CLK 1.02504e-05
47 *1314:S *194:45 0.000117896
48 *1314:S *194:47 0.000236092
49 *1314:S *194:49 0.000140361
50 *1364:D *1356:CLK 0
51 *1378:RESET_B *194:19 0.000137875
52 *1388:D *194:32 0.000166485
53 *1388:RESET_B *194:43 8.93931e-05
54 *1390:RESET_B *194:19 9.62151e-05
55 *1391:RESET_B *194:81 5.52302e-05
56 *1394:D *194:87 4.87953e-05
57 *97:35 *1391:CLK 0.000219741
58 *112:12 *194:32 0.00010096
59 *144:29 *1356:CLK 5.41573e-05
60 *148:14 *194:10 0.000154762
61 *151:32 *1388:CLK 0.000268692
62 *151:32 *194:43 0.000178874
63 *169:12 *1391:CLK 0.000218019
64 *175:193 *1356:CLK 0
65 *175:193 *194:45 0
66 *176:20 *194:19 0.000887508
67 *176:20 *194:32 0.000198615
68 *182:106 *194:19 7.3237e-05
69 *184:48 *194:81 0.000211249
70 *184:72 *194:87 8.45399e-05
71 *185:25 *1356:CLK 0
*RES
1 *1441:X *194:10 20.2464 
2 *194:10 *1378:CLK 9.3 
3 *194:10 *194:19 17.8036 
4 *194:19 *1390:CLK 9.3 
5 *194:19 *194:32 16.6071 
6 *194:32 *1388:CLK 13.9429 
7 *194:32 *194:43 8.32143 
8 *194:43 *194:45 2.25 
9 *194:45 *194:47 3.16071 
10 *194:47 *194:49 1.94643 
11 *194:49 *1393:CLK 21.7821 
12 *194:49 *1357:CLK 15.5679 
13 *194:47 *194:81 14.25 
14 *194:81 *194:87 7.66071 
15 *194:87 *1391:CLK 21.1571 
16 *194:87 *1394:CLK 9.3 
17 *194:81 *1389:CLK 9.3 
18 *194:45 *1361:CLK 14.7464 
19 *194:43 *1356:CLK 23.6393 
*END

*D_NET *195 0.0103035
*CONN
*I *1358:CLK I *D sky130_fd_sc_hd__dfrtp_1
*I *1363:CLK I *D sky130_fd_sc_hd__dfrtp_1
*I *1360:CLK I *D sky130_fd_sc_hd__dfrtp_1
*I *1362:CLK I *D sky130_fd_sc_hd__dfrtp_1
*I *1366:CLK I *D sky130_fd_sc_hd__dfrtp_1
*I *1364:CLK I *D sky130_fd_sc_hd__dfrtp_1
*I *1359:CLK I *D sky130_fd_sc_hd__dfrtp_1
*I *1376:CLK I *D sky130_fd_sc_hd__dfrtp_1
*I *1442:X O *D sky130_fd_sc_hd__clkbuf_2
*CAP
1 *1358:CLK 2.36445e-05
2 *1363:CLK 0
3 *1360:CLK 0.000101004
4 *1362:CLK 3.72884e-05
5 *1366:CLK 0.000267168
6 *1364:CLK 0.000270709
7 *1359:CLK 3.82418e-05
8 *1376:CLK 0.000514806
9 *1442:X 0.000183843
10 *195:56 0.000660422
11 *195:54 0.000363548
12 *195:52 0.0004726
13 *195:46 0.00112847
14 *195:29 0.00165672
15 *195:25 0.000795668
16 *195:12 0.000812782
17 *1366:CLK *1280:A1 0.000270326
18 *1376:CLK *1301:A0 3.97657e-05
19 *195:12 *1301:A0 0
20 *195:12 *255:16 0
21 *195:25 *255:16 5.52238e-05
22 *1219:A2 *1364:CLK 0.000140933
23 *1242:B *195:54 0
24 *1242:B *195:56 0
25 *1276:A1 *195:46 0
26 *1280:A0 *1364:CLK 0
27 *1280:A0 *1366:CLK 2.59355e-05
28 *1280:S *1366:CLK 0.000361914
29 *1281:S *1360:CLK 5.33005e-05
30 *1281:S *195:54 0.000137939
31 *1282:B *1364:CLK 7.12595e-05
32 *1285:S *1364:CLK 0.000230616
33 *1298:S *195:12 0.000142856
34 *1301:S *195:12 5.52238e-05
35 *1358:RESET_B *195:29 9.80639e-05
36 *1358:RESET_B *195:46 9.18348e-05
37 *1359:RESET_B *195:46 1.12381e-05
38 *1363:D *195:52 3.2534e-05
39 *1376:D *1376:CLK 0.000268682
40 *1376:D *195:12 0.000102545
41 *1376:RESET_B *1358:CLK 3.18676e-05
42 *1376:RESET_B *195:25 6.70877e-05
43 *1376:RESET_B *195:29 8.40564e-05
44 *1474:A *195:46 0
45 *112:12 *1364:CLK 6.72808e-05
46 *112:12 *195:56 2.8266e-06
47 *144:40 *195:54 0.000227736
48 *144:40 *195:56 0.000171368
49 *169:33 *1364:CLK 3.97677e-05
50 *185:52 *195:52 0
51 *185:52 *195:54 0
52 *185:77 *195:46 5.29658e-05
53 *185:77 *195:52 0
54 *186:76 *1366:CLK 4.14279e-05
*RES
1 *1442:X *195:12 21.7107 
2 *195:12 *1376:CLK 16.7464 
3 *195:12 *195:25 2.58929 
4 *195:25 *195:29 8.76786 
5 *195:29 *1359:CLK 10.0321 
6 *195:29 *195:46 18.1071 
7 *195:46 *195:52 3.21429 
8 *195:52 *195:54 4.98214 
9 *195:54 *195:56 2.55357 
10 *195:56 *1364:CLK 20.5857 
11 *195:56 *1366:CLK 20.4964 
12 *195:54 *1362:CLK 14.3357 
13 *195:52 *1360:CLK 15.5679 
14 *195:46 *1363:CLK 13.8 
15 *195:25 *1358:CLK 10.2643 
*END

*D_NET *196 0.0219813
*CONN
*I *1438:A I *D sky130_fd_sc_hd__dlymetal6s2s_1
*I *1437:A I *D sky130_fd_sc_hd__clkbuf_2
*I *1441:A I *D sky130_fd_sc_hd__clkbuf_2
*I *1442:A I *D sky130_fd_sc_hd__clkbuf_2
*I *1440:A I *D sky130_fd_sc_hd__buf_1
*I *1439:A I *D sky130_fd_sc_hd__clkbuf_2
*I *1436:A I *D sky130_fd_sc_hd__clkbuf_2
*I *1435:A I *D sky130_fd_sc_hd__clkbuf_2
*I *1443:X O *D sky130_fd_sc_hd__buf_2
*CAP
1 *1438:A 0.00086758
2 *1437:A 0.000699795
3 *1441:A 0
4 *1442:A 0
5 *1440:A 0
6 *1439:A 0
7 *1436:A 2.85076e-05
8 *1435:A 0.00116216
9 *1443:X 0
10 *196:90 0.00186737
11 *196:77 0.00108732
12 *196:62 0.00254123
13 *196:26 0.00227257
14 *196:16 0.00177068
15 *196:10 0.0010605
16 *196:4 0.00212563
17 *1435:A *209:25 8.00653e-05
18 *1437:A *1296:A0 0.00010177
19 *1437:A *197:105 0.000100831
20 *1437:A *197:120 0.00027142
21 *1437:A *209:106 0.00040576
22 *1438:A *1226:A 0
23 *196:10 *1443:A 0.000175502
24 *196:16 *1256:A1 0
25 *196:16 *1305:A1 0
26 *196:77 *1301:A0 0
27 *196:90 *1296:A0 7.90803e-05
28 *196:90 *208:31 0.000415462
29 *196:90 *208:54 0.000171375
30 *1251:A2 *1437:A 0.000137983
31 *1251:A2 *1438:A 0.000566855
32 *1254:A2 *1438:A 0.000108118
33 *1268:A2 *196:77 0.000193118
34 *1269:B1 *1437:A 5.51406e-05
35 *1270:C1 *1438:A 5.33005e-05
36 *1290:S *196:77 6.44636e-05
37 *1299:S *196:77 5.52238e-05
38 *1300:S *196:77 5.33005e-05
39 *1300:S *196:90 0.000169359
40 *1301:S *196:62 0.000181192
41 *1301:S *196:77 2.89016e-05
42 *1368:CLK *196:77 0
43 *1370:D *196:77 0
44 *1371:D *196:16 0
45 *1372:CLK *196:26 0
46 *1381:D *1435:A 0.000128154
47 *1381:RESET_B *1435:A 0
48 *1382:CLK *196:16 0.000129746
49 *1382:D *196:16 5.76121e-05
50 *1382:D *196:26 7.50473e-05
51 *1397:D *1435:A 4.57445e-05
52 *1397:RESET_B *1435:A 0
53 *1417:D *1435:A 0
54 *1418:CLK *1435:A 0
55 *1418:D *1435:A 0.000113472
56 *1419:CLK *1435:A 0
57 *1427:A *1437:A 9.90431e-05
58 *1455:A *1435:A 0
59 *1455:A *196:26 0
60 *97:35 *1438:A 7.83587e-05
61 *101:24 *1437:A 7.83587e-05
62 *146:44 *196:77 1.37292e-05
63 *148:14 *196:77 0.000414376
64 *148:32 *196:77 0.000253738
65 *160:29 *1437:A 0.00034555
66 *166:10 *1438:A 0.000158447
67 *167:10 *1437:A 1.69115e-05
68 *167:31 *1437:A 4.038e-06
69 *167:31 *196:90 5.59013e-05
70 *169:12 *1438:A 0.000338351
71 *176:28 *196:90 5.41794e-05
72 *178:59 *1435:A 0
73 *182:92 *196:77 0
74 *186:91 *196:90 0.000284977
75 *187:23 *1435:A 3.69047e-06
76 *188:16 *1435:A 0
77 *188:20 *1435:A 0
78 *191:10 *196:16 5.52238e-05
79 *191:12 *196:26 0
80 *191:105 *196:77 0
81 *192:12 *1436:A 5.52238e-05
82 *193:10 *196:10 1.78353e-05
83 *193:10 *196:16 0.00015206
*RES
1 *1443:X *196:4 9.3 
2 *196:4 *196:10 9.96429 
3 *196:10 *196:16 19.6607 
4 *196:16 *196:26 23.9821 
5 *196:26 *1435:A 36.5321 
6 *196:26 *1436:A 14.3357 
7 *196:16 *1439:A 9.3 
8 *196:10 *1440:A 13.8 
9 *196:4 *196:62 21.0893 
10 *196:62 *1442:A 9.3 
11 *196:62 *196:77 27 
12 *196:77 *1441:A 9.3 
13 *196:77 *196:90 19.0893 
14 *196:90 *1437:A 34.9964 
15 *196:90 *1438:A 32.7821 
*END

*D_NET *197 0.0142222
*CONN
*I *1229:B_N I *D sky130_fd_sc_hd__and4bb_1
*I *1224:B_N I *D sky130_fd_sc_hd__and4bb_2
*I *1217:A_N I *D sky130_fd_sc_hd__and4b_2
*I *1218:B I *D sky130_fd_sc_hd__nor4b_1
*I *1211:C I *D sky130_fd_sc_hd__and4_1
*I *1239:B I *D sky130_fd_sc_hd__and4b_2
*I *1222:B I *D sky130_fd_sc_hd__nor4b_1
*I *1228:A_N I *D sky130_fd_sc_hd__and4bb_2
*I *1236:C I *D sky130_fd_sc_hd__and4bb_2
*I *1238:B I *D sky130_fd_sc_hd__and4b_2
*I *1444:X O *D sky130_fd_sc_hd__clkbuf_2
*CAP
1 *1229:B_N 0
2 *1224:B_N 5.08801e-05
3 *1217:A_N 0.000271325
4 *1218:B 1.99857e-05
5 *1211:C 7.5324e-05
6 *1239:B 0.00021508
7 *1222:B 0.000452858
8 *1228:A_N 2.22847e-05
9 *1236:C 0.000339295
10 *1238:B 0.000410427
11 *1444:X 0
12 *197:120 0.000480122
13 *197:105 0.000735418
14 *197:95 0.000692412
15 *197:78 0.000502445
16 *197:74 0.000381211
17 *197:49 0.000950584
18 *197:40 0.000614619
19 *197:23 0.000814011
20 *197:4 0.000526439
21 *1211:C *199:34 5.33005e-05
22 *1211:C *199:49 4.08637e-05
23 *1217:A_N *1218:A 1.5424e-05
24 *1217:A_N *1218:C 1.33343e-05
25 *1217:A_N *201:122 0
26 *1217:A_N *209:106 0.000122101
27 *1218:B *1232:B 0
28 *1222:B *1222:A 1.59689e-05
29 *1222:B *1222:C 0.000195187
30 *1222:B *1222:D_N 0
31 *1222:B *1292:A 4.22135e-06
32 *1222:B *209:37 1.88048e-05
33 *1224:B_N *210:29 8.25098e-05
34 *1236:C *1247:A1 4.64488e-06
35 *1236:C *214:37 0
36 *1238:B *1238:C 0.000399841
37 *1238:B *209:25 6.05161e-06
38 *1238:B *260:10 4.09856e-05
39 *1239:B *1239:C 0
40 *1239:B *1247:A1 0.000117563
41 *1239:B *201:82 3.67452e-05
42 *1239:B *201:92 5.80706e-06
43 *197:40 *1230:A1 5.13373e-05
44 *197:40 *1293:A1 2.343e-05
45 *197:49 *1222:C 4.58976e-05
46 *197:49 *1230:A1 7.45527e-05
47 *197:49 *200:50 0.000136958
48 *197:74 *1222:C 2.89114e-05
49 *197:74 *1230:A1 0.000125225
50 *197:74 *1230:B2 7.70134e-06
51 *197:78 *1303:A1 0
52 *197:78 *200:87 0.000190335
53 *197:95 *1247:A1 6.13217e-05
54 *197:105 *1227:A1 0
55 *197:105 *201:92 0.000497804
56 *197:120 *1218:A 2.89016e-05
57 *197:120 *1233:B_N 1.02936e-05
58 *197:120 *209:126 9.41642e-05
59 *1227:A2 *1224:B_N 3.34783e-05
60 *1227:A2 *197:105 4.46186e-06
61 *1230:C1 *1222:B 0
62 *1230:C1 *197:74 0.000100735
63 *1230:C1 *197:78 4.56311e-05
64 *1247:C1 *197:74 0.000197991
65 *1247:C1 *197:78 0.000282385
66 *1252:B1 *197:105 6.2589e-06
67 *1269:A2 *1217:A_N 0.000104236
68 *1269:B1 *197:105 7.6644e-05
69 *1269:B1 *197:120 0.000280663
70 *1292:B *1222:B 3.69697e-05
71 *1304:S *1236:C 0
72 *1380:CLK *1236:C 0.000234608
73 *1380:D *1236:C 3.006e-05
74 *1381:D *1238:B 0.000144941
75 *1381:RESET_B *1238:B 9.30523e-05
76 *1427:A *1217:A_N 0.000321738
77 *1437:A *197:105 0.000100831
78 *1437:A *197:120 0.00027142
79 *1445:A *1238:B 5.52302e-05
80 *1445:A *197:23 0.0003865
81 *1445:A *197:105 0
82 *1448:A *1236:C 0
83 *1448:A *197:40 0
84 *1449:A *197:40 0
85 *89:12 *1217:A_N 1.97695e-05
86 *93:14 *1222:B 2.06112e-05
87 *95:18 *197:95 9.41642e-05
88 *106:12 *197:105 0.000569194
89 *110:10 *197:105 1.3142e-05
90 *116:14 *1224:B_N 0.00013966
91 *116:14 *197:105 0.00019384
92 *149:24 *1222:B 1.20084e-05
93 *167:10 *197:120 9.60939e-05
94 *170:8 *1238:B 2.89114e-05
95 *170:8 *197:23 0.000122081
96 *173:63 *1236:C 0
97 *173:63 *1238:B 0
*RES
1 *1444:X *197:4 9.3 
2 *197:4 *1238:B 28.05 
3 *197:4 *197:23 8.32143 
4 *197:23 *1236:C 19.6929 
5 *197:23 *197:40 10.3929 
6 *197:40 *1228:A_N 9.72857 
7 *197:40 *197:49 4.23214 
8 *197:49 *1222:B 29.1166 
9 *197:49 *197:74 10.875 
10 *197:74 *197:78 8.26786 
11 *197:78 *1239:B 21.5143 
12 *197:78 *197:95 6.67857 
13 *197:95 *197:105 21.9464 
14 *197:105 *1211:C 14.7464 
15 *197:105 *197:120 10.0357 
16 *197:120 *1218:B 9.72857 
17 *197:120 *1217:A_N 25.5143 
18 *197:95 *1224:B_N 15.7464 
19 *197:74 *1229:B_N 13.8 
*END

*D_NET *198 0.00766038
*CONN
*I *1233:C I *D sky130_fd_sc_hd__and4bb_2
*I *1232:A I *D sky130_fd_sc_hd__and3_2
*I *1226:C I *D sky130_fd_sc_hd__or4_2
*I *1221:A_N I *D sky130_fd_sc_hd__and3b_2
*I *1231:C I *D sky130_fd_sc_hd__and3b_2
*I *1225:C I *D sky130_fd_sc_hd__nor4_1
*I *1235:C I *D sky130_fd_sc_hd__and4b_2
*I *1445:X O *D sky130_fd_sc_hd__buf_1
*CAP
1 *1233:C 0
2 *1232:A 0
3 *1226:C 0.000155338
4 *1221:A_N 0.000199928
5 *1231:C 0
6 *1225:C 0.00059127
7 *1235:C 0
8 *1445:X 0.000138761
9 *198:49 0.000474624
10 *198:45 0.000156457
11 *198:38 0.000113545
12 *198:23 0.000742861
13 *198:19 0.00027048
14 *198:12 0.000334098
15 *1221:A_N *1220:A 4.33899e-05
16 *1221:A_N *201:122 0.00022432
17 *1225:C *1233:B_N 0.000604166
18 *1225:C *199:53 1.39726e-05
19 *1225:C *201:122 2.28598e-05
20 *1226:C *1217:C 1.721e-05
21 *1226:C *1220:B 0.000197984
22 *1226:C *1226:D 0.000139907
23 *198:12 *199:34 5.33005e-05
24 *198:12 *202:16 5.52238e-05
25 *198:19 *1211:A 9.90367e-05
26 *198:19 *1233:D 5.71472e-05
27 *198:19 *199:34 0.00046131
28 *198:19 *199:49 0.000193263
29 *198:19 *202:16 0.000177821
30 *198:19 *202:25 0.000675515
31 *198:23 *1233:B_N 6.79842e-05
32 *198:23 *199:49 0.000143439
33 *198:38 *1232:B 2.98258e-05
34 *198:38 *1233:B_N 1.08359e-05
35 *198:38 *199:49 8.15095e-05
36 *198:38 *199:53 5.33005e-05
37 *198:38 *199:80 2.24646e-05
38 *198:38 *201:105 4.038e-06
39 *198:38 *201:122 5.59013e-05
40 *198:45 *1232:B 6.85754e-05
41 *198:49 *1217:C 4.46186e-06
42 *198:49 *1220:B 1.02504e-05
43 *198:49 *1226:B 1.87097e-05
44 *1221:C *1221:A_N 5.7298e-05
45 *1227:A2 *198:12 5.31667e-05
46 *1232:C *1221:A_N 1.24368e-05
47 *1232:C *198:49 3.69697e-05
48 *1247:A2 *198:12 0
49 *1258:B1 *198:49 3.31552e-05
50 *1270:C1 *1221:A_N 6.84822e-05
51 *1469:A *1225:C 1.21289e-05
52 *89:12 *198:38 0.000114596
53 *89:12 *198:45 0.000160519
54 *91:14 *1221:A_N 5.33005e-05
55 *91:14 *198:49 1.90936e-05
56 *92:10 *1226:C 0.000150618
57 *95:33 *198:12 7.43578e-06
58 *96:8 *1225:C 9.60939e-05
*RES
1 *1445:X *198:12 12.4607 
2 *198:12 *1235:C 9.3 
3 *198:12 *198:19 8.33929 
4 *198:19 *198:23 6.44643 
5 *198:23 *1225:C 21.7286 
6 *198:23 *198:38 6.99107 
7 *198:38 *1231:C 9.3 
8 *198:38 *198:45 1.5625 
9 *198:45 *198:49 6.44643 
10 *198:49 *1221:A_N 18.05 
11 *198:49 *1226:C 18.1214 
12 *198:45 *1232:A 9.3 
13 *198:19 *1233:C 9.3 
*END

*D_NET *199 0.00841419
*CONN
*I *1225:D I *D sky130_fd_sc_hd__nor4_1
*I *1226:D I *D sky130_fd_sc_hd__or4_2
*I *1217:B I *D sky130_fd_sc_hd__and4b_2
*I *1221:B I *D sky130_fd_sc_hd__and3b_2
*I *1232:B I *D sky130_fd_sc_hd__and3_2
*I *1231:A_N I *D sky130_fd_sc_hd__and3b_2
*I *1218:C I *D sky130_fd_sc_hd__nor4b_1
*I *1211:D I *D sky130_fd_sc_hd__and4_1
*I *1235:D I *D sky130_fd_sc_hd__and4b_2
*I *1229:C I *D sky130_fd_sc_hd__and4bb_1
*I *1446:X O *D sky130_fd_sc_hd__clkbuf_2
*CAP
1 *1225:D 2.46036e-05
2 *1226:D 0.000105061
3 *1217:B 0
4 *1221:B 0
5 *1232:B 0.000229739
6 *1231:A_N 0
7 *1218:C 4.12364e-05
8 *1211:D 0
9 *1235:D 0
10 *1229:C 0.00017222
11 *1446:X 0
12 *199:93 0.000230314
13 *199:80 0.000256472
14 *199:53 8.99637e-05
15 *199:51 0.000278466
16 *199:49 0.000580097
17 *199:34 0.000699829
18 *199:27 0.000526896
19 *199:19 0.000560381
20 *199:4 0.000432053
21 *1218:C *1218:A 9.90367e-05
22 *1218:C *201:122 5.52302e-05
23 *1225:D *209:98 9.60939e-05
24 *1226:D *1220:B 8.46829e-05
25 *1226:D *209:106 9.66977e-05
26 *1229:C *1233:B_N 3.4879e-05
27 *1229:C *200:95 1.56e-05
28 *1229:C *210:29 5.922e-05
29 *199:19 *1233:B_N 0.000175946
30 *199:19 *1269:B2 0.000147132
31 *199:19 *1296:A0 1.24368e-05
32 *199:19 *202:8 3.90513e-05
33 *199:27 *1227:A1 0
34 *199:27 *1233:B_N 2.06178e-05
35 *199:27 *1235:B 0.000129947
36 *199:27 *1269:B2 0.000331797
37 *199:27 *202:10 1.856e-05
38 *199:27 *202:16 2.39876e-05
39 *199:27 *210:33 9.8045e-05
40 *199:34 *1235:B 5.33005e-05
41 *199:49 *1211:A 9.90367e-05
42 *199:49 *1233:B_N 9.10431e-06
43 *199:49 *1233:D 9.90367e-05
44 *199:49 *202:25 0
45 *199:53 *201:122 4.18895e-05
46 *199:80 *201:122 5.70575e-05
47 *199:93 *209:106 9.71197e-05
48 *1211:C *199:34 5.33005e-05
49 *1211:C *199:49 4.08637e-05
50 *1217:A_N *1218:C 1.33343e-05
51 *1218:B *1232:B 0
52 *1221:C *199:80 1.90936e-05
53 *1225:C *199:53 1.39726e-05
54 *1226:C *1226:D 0.000139907
55 *1231:B *199:49 8.07879e-05
56 *1231:B *199:80 0.000108511
57 *1258:B1 *199:80 6.00295e-05
58 *1258:B1 *199:93 8.15939e-05
59 *1269:A2 *199:80 0
60 *1269:A2 *199:93 0
61 *1273:B1 *199:49 5.94543e-05
62 *1445:A *1229:C 9.7659e-05
63 *1469:A *1225:D 9.60939e-05
64 *89:12 *1218:C 3.18676e-05
65 *89:12 *1232:B 2.63579e-05
66 *89:12 *199:53 4.27338e-05
67 *102:8 *1232:B 5.49544e-05
68 *102:10 *199:49 2.99773e-05
69 *106:12 *199:27 3.38674e-05
70 *160:29 *199:19 0
71 *198:12 *199:34 5.33005e-05
72 *198:19 *199:34 0.00046131
73 *198:19 *199:49 0.000193263
74 *198:23 *199:49 0.000143439
75 *198:38 *1232:B 2.98258e-05
76 *198:38 *199:49 8.15095e-05
77 *198:38 *199:53 5.33005e-05
78 *198:38 *199:80 2.24646e-05
79 *198:45 *1232:B 6.85754e-05
*RES
1 *1446:X *199:4 9.3 
2 *199:4 *1229:C 12.7286 
3 *199:4 *199:19 9.23214 
4 *199:19 *199:27 11.1607 
5 *199:27 *1235:D 9.3 
6 *199:27 *199:34 5.05357 
7 *199:34 *1211:D 9.3 
8 *199:34 *199:49 12.75 
9 *199:49 *199:51 4.5 
10 *199:51 *199:53 1.35714 
11 *199:53 *1218:C 10.6571 
12 *199:53 *1231:A_N 9.3 
13 *199:51 *1232:B 13.5857 
14 *199:49 *199:80 3.16071 
15 *199:80 *1221:B 13.8 
16 *199:80 *199:93 7.39286 
17 *199:93 *1217:B 9.3 
18 *199:93 *1226:D 11.8893 
19 *199:19 *1225:D 14.7464 
*END

*D_NET *200 0.0129306
*CONN
*I *1224:C I *D sky130_fd_sc_hd__and4bb_2
*I *1233:B_N I *D sky130_fd_sc_hd__and4bb_2
*I *1446:A I *D sky130_fd_sc_hd__clkbuf_2
*I *1239:A_N I *D sky130_fd_sc_hd__and4b_2
*I *1222:C I *D sky130_fd_sc_hd__nor4b_1
*I *1228:B_N I *D sky130_fd_sc_hd__and4bb_2
*I *1236:B_N I *D sky130_fd_sc_hd__and4bb_2
*I *1238:C I *D sky130_fd_sc_hd__and4b_2
*I *1447:X O *D sky130_fd_sc_hd__clkbuf_2
*CAP
1 *1224:C 0
2 *1233:B_N 0.000599245
3 *1446:A 0
4 *1239:A_N 0
5 *1222:C 0.000204479
6 *1228:B_N 0
7 *1236:B_N 0
8 *1238:C 0.000223363
9 *1447:X 0
10 *200:95 0.00075355
11 *200:87 0.000540917
12 *200:72 0.000484058
13 *200:50 0.000526062
14 *200:40 0.000584096
15 *200:18 0.000796897
16 *200:4 0.000738602
17 *1222:C *1230:A1 0.0001399
18 *1222:C *1230:B2 0
19 *1222:C *1292:A 3.34295e-05
20 *1233:B_N *1218:A 0.00018372
21 *1233:B_N *1229:D 0.000214198
22 *1233:B_N *1269:B2 3.19423e-05
23 *1233:B_N *201:92 9.25014e-06
24 *1233:B_N *201:105 0.000188369
25 *1233:B_N *201:122 4.08637e-05
26 *1233:B_N *202:8 3.17148e-05
27 *1233:B_N *202:10 0.000112777
28 *1233:B_N *209:98 8.36871e-05
29 *1233:B_N *209:126 8.11174e-05
30 *1238:C *1236:D 5.52302e-05
31 *1238:C *1247:A1 0.000211249
32 *1238:C *1304:A1 0.00010096
33 *200:18 *1236:D 2.04825e-05
34 *200:18 *214:37 4.2855e-05
35 *200:40 *1247:A1 0.000127501
36 *200:50 *1230:A1 6.12434e-05
37 *200:50 *1239:C 0
38 *200:50 *201:50 0.000412326
39 *200:72 *1239:C 9.90431e-05
40 *200:72 *1247:A1 0.000146533
41 *200:87 *1227:B2 0.00018077
42 *200:87 *1239:C 0.000175251
43 *200:87 *1247:A1 0.000170955
44 *200:87 *1247:B2 7.80714e-06
45 *200:87 *1303:A1 0
46 *200:87 *201:82 0.000102324
47 *200:87 *201:92 1.76135e-05
48 *200:87 *259:8 0
49 *200:95 *1229:D 0.000183726
50 *1222:B *1222:C 0.000195187
51 *1225:C *1233:B_N 0.000604166
52 *1229:C *1233:B_N 3.4879e-05
53 *1229:C *200:95 1.56e-05
54 *1238:B *1238:C 0.000399841
55 *1247:C1 *200:87 3.80904e-05
56 *1247:C1 *200:95 4.93223e-05
57 *1252:B1 *1233:B_N 4.86312e-05
58 *1292:B *1222:C 1.56e-05
59 *1303:A0 *200:50 0.000378257
60 *1304:A0 *1238:C 5.52238e-05
61 *1380:CLK *200:18 1.90936e-05
62 *1445:A *200:95 0.000266479
63 *1447:A *200:18 0.000497504
64 *1456:A *1222:C 0.000225609
65 *1469:A *1233:B_N 6.05161e-06
66 *93:14 *1222:C 5.33433e-05
67 *109:14 *1238:C 0.000122081
68 *116:14 *200:95 9.8958e-05
69 *147:10 *1222:C 1.41029e-05
70 *149:24 *200:50 0.000171954
71 *160:29 *1233:B_N 2.08977e-05
72 *173:63 *1238:C 0.000184745
73 *197:49 *1222:C 4.58976e-05
74 *197:49 *200:50 0.000136958
75 *197:74 *1222:C 2.89114e-05
76 *197:78 *200:87 0.000190335
77 *197:120 *1233:B_N 1.02936e-05
78 *198:23 *1233:B_N 6.79842e-05
79 *198:38 *1233:B_N 1.08359e-05
80 *199:19 *1233:B_N 0.000175946
81 *199:27 *1233:B_N 2.06178e-05
82 *199:49 *1233:B_N 9.10431e-06
*RES
1 *1447:X *200:4 9.3 
2 *200:4 *200:18 17.5169 
3 *200:18 *1238:C 16.9607 
4 *200:18 *1236:B_N 9.3 
5 *200:4 *200:40 2.73214 
6 *200:40 *200:50 18.5 
7 *200:50 *1228:B_N 9.3 
8 *200:50 *1222:C 24.3893 
9 *200:40 *200:72 2.58929 
10 *200:72 *1239:A_N 9.3 
11 *200:72 *200:87 17.5357 
12 *200:87 *200:95 13.3393 
13 *200:95 *1446:A 9.3 
14 *200:95 *1233:B_N 48.1517 
15 *200:87 *1224:C 9.3 
*END

*D_NET *201 0.0129995
*CONN
*I *1224:A_N I *D sky130_fd_sc_hd__and4bb_2
*I *1239:D I *D sky130_fd_sc_hd__and4b_2
*I *1220:A I *D sky130_fd_sc_hd__nor2_1
*I *1217:C I *D sky130_fd_sc_hd__and4b_2
*I *1218:A I *D sky130_fd_sc_hd__nor4b_1
*I *1211:A I *D sky130_fd_sc_hd__and4_1
*I *1222:D_N I *D sky130_fd_sc_hd__nor4b_1
*I *1228:C I *D sky130_fd_sc_hd__and4bb_2
*I *1236:A_N I *D sky130_fd_sc_hd__and4bb_2
*I *1238:D I *D sky130_fd_sc_hd__and4b_2
*I *1448:X O *D sky130_fd_sc_hd__clkbuf_2
*CAP
1 *1224:A_N 0
2 *1239:D 0
3 *1220:A 8.92332e-06
4 *1217:C 6.89179e-05
5 *1218:A 3.79825e-05
6 *1211:A 1.645e-05
7 *1222:D_N 0.000157874
8 *1228:C 0
9 *1236:A_N 0.000273962
10 *1238:D 0.000471275
11 *1448:X 0
12 *201:122 0.000263924
13 *201:105 0.000340151
14 *201:92 0.000954682
15 *201:82 0.000941402
16 *201:78 0.000339181
17 *201:50 0.000290797
18 *201:46 0.000566401
19 *201:25 0.000945705
20 *201:4 0.000929465
21 *1222:D_N *1222:A 6.07085e-05
22 *1222:D_N *209:37 1.02504e-05
23 *1236:A_N *1247:A1 1.15172e-05
24 *1236:A_N *214:37 7.54868e-05
25 *1238:D *209:25 0.000617355
26 *1238:D *209:33 5.7661e-06
27 *201:25 *209:25 3.8274e-05
28 *201:25 *209:33 0.000357243
29 *201:46 *209:33 0.000132248
30 *201:50 *1239:C 6.8646e-06
31 *201:50 *209:37 0.000412333
32 *201:78 *209:33 5.52302e-05
33 *201:78 *209:65 8.57023e-05
34 *201:78 *209:82 0.000166485
35 *201:78 *209:98 3.57366e-05
36 *201:82 *1239:C 0
37 *201:82 *259:8 0
38 *201:92 *1239:C 0
39 *201:92 *1247:B2 0
40 *1217:A_N *1218:A 1.5424e-05
41 *1217:A_N *201:122 0
42 *1218:C *1218:A 9.90367e-05
43 *1218:C *201:122 5.52302e-05
44 *1221:A_N *1220:A 4.33899e-05
45 *1221:A_N *201:122 0.00022432
46 *1221:C *201:122 2.22043e-05
47 *1222:B *1222:D_N 0
48 *1225:C *201:122 2.28598e-05
49 *1226:C *1217:C 1.721e-05
50 *1233:B_N *1218:A 0.00018372
51 *1233:B_N *201:92 9.25014e-06
52 *1233:B_N *201:105 0.000188369
53 *1233:B_N *201:122 4.08637e-05
54 *1239:B *201:82 3.67452e-05
55 *1239:B *201:92 5.80706e-06
56 *1258:B1 *1217:C 0.000195547
57 *1269:A2 *201:122 5.80706e-06
58 *1270:C1 *1220:A 5.49544e-05
59 *1270:C1 *201:122 0.000222666
60 *1273:A2 *201:92 0.000613026
61 *1273:B1 *201:92 0
62 *1381:RESET_B *1238:D 0
63 *1427:A *201:92 2.74584e-05
64 *1427:A *201:105 6.04551e-05
65 *1427:A *201:122 0
66 *1447:A *1236:A_N 7.17432e-05
67 *92:10 *1217:C 0.000150618
68 *93:14 *1222:D_N 2.69286e-05
69 *106:12 *201:92 1.74352e-05
70 *106:35 *201:92 0.000159925
71 *116:14 *201:92 0.000113295
72 *149:24 *1222:D_N 0.000203517
73 *149:24 *201:50 1.30594e-05
74 *197:105 *201:92 0.000497804
75 *197:120 *1218:A 2.89016e-05
76 *198:19 *1211:A 9.90367e-05
77 *198:38 *201:105 4.038e-06
78 *198:38 *201:122 5.59013e-05
79 *198:49 *1217:C 4.46186e-06
80 *199:49 *1211:A 9.90367e-05
81 *199:53 *201:122 4.18895e-05
82 *199:80 *201:122 5.70575e-05
83 *200:50 *201:50 0.000412326
84 *200:87 *201:82 0.000102324
85 *200:87 *201:92 1.76135e-05
*RES
1 *1448:X *201:4 9.3 
2 *201:4 *1238:D 26.9964 
3 *201:4 *201:25 5.875 
4 *201:25 *1236:A_N 22.6616 
5 *201:25 *201:46 3.01786 
6 *201:46 *201:50 10.0893 
7 *201:50 *1228:C 13.8 
8 *201:50 *1222:D_N 17.7821 
9 *201:46 *201:78 4.66071 
10 *201:78 *201:82 7.05357 
11 *201:82 *201:92 28.7143 
12 *201:92 *1211:A 14.7464 
13 *201:92 *201:105 7.35714 
14 *201:105 *1218:A 11.0679 
15 *201:105 *201:122 14.6786 
16 *201:122 *1217:C 20.8536 
17 *201:122 *1220:A 9.83571 
18 *201:82 *1239:D 13.8 
19 *201:78 *1224:A_N 9.3 
*END

*D_NET *202 0.00700812
*CONN
*I *1229:D I *D sky130_fd_sc_hd__and4bb_1
*I *1225:A I *D sky130_fd_sc_hd__nor4_1
*I *1226:A I *D sky130_fd_sc_hd__or4_2
*I *1233:D I *D sky130_fd_sc_hd__and4bb_2
*I *1235:A_N I *D sky130_fd_sc_hd__and4b_2
*I *1449:X O *D sky130_fd_sc_hd__buf_1
*CAP
1 *1229:D 0.000270813
2 *1225:A 0
3 *1226:A 0.000507829
4 *1233:D 1.55703e-05
5 *1235:A_N 0
6 *1449:X 0.000219842
7 *202:25 0.000713776
8 *202:16 0.000370773
9 *202:10 0.000260359
10 *202:8 0.000570618
11 *1226:A *1220:B 0
12 *1226:A *1226:B 0.000334254
13 *1226:A *210:52 0.000195092
14 *202:10 *209:98 4.00025e-05
15 *202:16 *1235:B 3.10885e-05
16 *202:16 *209:98 1.76135e-05
17 *202:16 *210:33 9.00763e-05
18 *202:16 *210:52 0.000177821
19 *202:25 *210:52 0.000764849
20 *1227:A2 *202:16 1.98839e-05
21 *1233:B_N *1229:D 0.000214198
22 *1233:B_N *202:8 3.17148e-05
23 *1233:B_N *202:10 0.000112777
24 *1254:A2 *1226:A 2.19684e-05
25 *1296:S *202:8 0
26 *1375:D *202:8 0.000125724
27 *1438:A *1226:A 0
28 *95:33 *202:16 0
29 *95:42 *202:8 0
30 *95:42 *202:10 0
31 *102:29 *1226:A 1.82549e-05
32 *103:8 *1226:A 0.000172112
33 *104:12 *1226:A 0.000316384
34 *169:12 *1226:A 0
35 *182:10 *202:8 3.40128e-05
36 *182:19 *202:8 3.06406e-05
37 *190:10 *1226:A 0
38 *190:16 *1226:A 0
39 *198:12 *202:16 5.52238e-05
40 *198:19 *1233:D 5.71472e-05
41 *198:19 *202:16 0.000177821
42 *198:19 *202:25 0.000675515
43 *199:19 *202:8 3.90513e-05
44 *199:27 *202:10 1.856e-05
45 *199:27 *202:16 2.39876e-05
46 *199:49 *1233:D 9.90367e-05
47 *199:49 *202:25 0
48 *200:95 *1229:D 0.000183726
*RES
1 *1449:X *202:8 18.7821 
2 *202:8 *202:10 1.94643 
3 *202:10 *202:16 8.92857 
4 *202:16 *1235:A_N 9.3 
5 *202:16 *202:25 7.83929 
6 *202:25 *1233:D 10.2464 
7 *202:25 *1226:A 31.0857 
8 *202:10 *1225:A 13.8 
9 *202:8 *1229:D 17.6214 
*END

*D_NET *203 0.00158583
*CONN
*I *1443:A I *D sky130_fd_sc_hd__buf_2
*I *1463:X O *D sky130_fd_sc_hd__clkbuf_1
*CAP
1 *1443:A 0.000705165
2 *1463:X 0.000705165
3 *196:10 *1443:A 0.000175502
*RES
1 *1463:X *1443:A 29.4393 
*END

*D_NET *204 0.0210104
*CONN
*I *1255:A1 I *D sky130_fd_sc_hd__a22o_1
*I *1254:B1_N I *D sky130_fd_sc_hd__o21ba_1
*I *1244:A1 I *D sky130_fd_sc_hd__a22o_1
*I *1287:A I *D sky130_fd_sc_hd__nand2_2
*I *1307:A I *D sky130_fd_sc_hd__nand2_1
*I *1302:A I *D sky130_fd_sc_hd__nand2_2
*I *1292:A I *D sky130_fd_sc_hd__nand2_2
*I *1297:A I *D sky130_fd_sc_hd__nand2_2
*I *1265:B1_N I *D sky130_fd_sc_hd__o21ba_1
*I *1243:B1_N I *D sky130_fd_sc_hd__o21ba_1
*I *1450:X O *D sky130_fd_sc_hd__clkbuf_4
*CAP
1 *1255:A1 0.000142797
2 *1254:B1_N 1.73466e-05
3 *1244:A1 0
4 *1287:A 0
5 *1307:A 9.74058e-05
6 *1302:A 0.000195541
7 *1292:A 0.000560135
8 *1297:A 0
9 *1265:B1_N 0
10 *1243:B1_N 0.000491011
11 *1450:X 0
12 *204:164 0.000658457
13 *204:105 0.000933605
14 *204:103 0.00126089
15 *204:93 0.00112715
16 *204:80 0.000606357
17 *204:63 0.00183234
18 *204:24 0.00193982
19 *204:20 0.00100633
20 *204:4 0.0014234
21 *1243:B1_N *1278:A1 0.000175998
22 *1254:B1_N *1254:A1 0
23 *1302:A *214:37 1.77011e-05
24 *1307:A *1267:A1 0.000103253
25 *1307:A *250:10 5.59013e-05
26 *204:20 *1219:A1 0.000197991
27 *204:20 *267:10 0.000146474
28 *204:63 *1275:A1 7.6644e-05
29 *204:63 *1281:A1 1.07719e-05
30 *204:63 *205:35 0
31 *204:80 *1288:A1 0.000140933
32 *204:80 *247:12 9.69119e-06
33 *204:164 *1254:A1 0.000114265
34 *204:164 *1451:A 0
35 *204:164 *206:140 0
36 *1222:B *1292:A 4.22135e-06
37 *1222:C *1292:A 3.34295e-05
38 *1223:A2 *204:80 0.00014285
39 *1242:A *204:20 0.000128154
40 *1242:B *204:63 5.52302e-05
41 *1242:B *204:80 0.000136001
42 *1243:A2 *204:63 0.00100541
43 *1244:B1 *204:20 0.000150625
44 *1244:B2 *1243:B1_N 9.25014e-06
45 *1244:B2 *204:20 4.01626e-05
46 *1254:A2 *1254:B1_N 3.99614e-06
47 *1255:B1 *1255:A1 6.09804e-05
48 *1255:B1 *204:164 1.57414e-05
49 *1255:B2 *1255:A1 5.71472e-05
50 *1257:B1 *204:80 0
51 *1266:B1 *204:63 0.00014576
52 *1266:B2 *204:63 7.6644e-05
53 *1267:B1 *204:105 0.000198033
54 *1268:C1 *1307:A 4.16383e-05
55 *1275:B1 *204:63 1.98839e-05
56 *1275:B1 *204:80 0.000704614
57 *1277:B *204:20 0.000101545
58 *1278:S *1243:B1_N 0.000148168
59 *1279:A0 *204:164 0.000240958
60 *1279:S *204:20 0.000221641
61 *1279:S *204:164 0.000129515
62 *1287:B *204:103 2.11419e-05
63 *1290:S *204:103 8.23597e-06
64 *1298:A0 *204:80 2.88424e-05
65 *1302:B *1302:A 1.00332e-05
66 *1306:S *1302:A 2.09266e-05
67 *1306:S *204:105 0
68 *1356:CLK *204:20 0
69 *1361:D *204:164 9.25014e-06
70 *1385:D *1292:A 3.5707e-05
71 *1386:CLK *1307:A 0
72 *1386:CLK *204:105 0
73 *1391:RESET_B *204:20 1.92905e-05
74 *1431:A *204:93 8.83221e-05
75 *1471:A *1243:B1_N 0
76 *92:42 *204:80 0.000437762
77 *92:42 *204:93 4.36963e-05
78 *93:14 *1292:A 0
79 *93:29 *1292:A 0.00071967
80 *93:29 *1307:A 1.94879e-05
81 *93:29 *204:105 0.000443665
82 *95:46 *204:103 0
83 *97:35 *204:63 4.46186e-06
84 *97:52 *204:63 0
85 *97:52 *204:80 1.3701e-05
86 *112:12 *204:20 0.000220026
87 *144:29 *204:20 0.000522701
88 *144:40 *204:20 7.61164e-05
89 *144:40 *204:24 0
90 *144:40 *204:63 0
91 *147:10 *1292:A 0.000170646
92 *149:8 *1302:A 5.49489e-05
93 *150:14 *1307:A 0
94 *168:25 *204:80 4.58976e-05
95 *172:35 *1302:A 0.000400445
96 *174:61 *204:164 0.00019384
97 *175:193 *1243:B1_N 0.000114334
98 *176:62 *204:80 4.57538e-05
99 *184:48 *204:20 2.77143e-05
100 *185:25 *1243:B1_N 0
101 *185:25 *204:24 0
102 *185:25 *204:63 0
*RES
1 *1450:X *204:4 9.3 
2 *204:4 *204:20 28.9464 
3 *204:20 *204:24 5.83929 
4 *204:24 *1243:B1_N 30.3536 
5 *204:24 *204:63 42.2857 
6 *204:63 *1265:B1_N 9.3 
7 *204:63 *204:80 22.9107 
8 *204:80 *1297:A 9.3 
9 *204:80 *204:93 3.16071 
10 *204:93 *204:103 13.4455 
11 *204:103 *204:105 5.74107 
12 *204:105 *1292:A 26.425 
13 *204:105 *1302:A 27.3536 
14 *204:103 *1307:A 15.8982 
15 *204:93 *1287:A 9.3 
16 *204:20 *1244:A1 9.3 
17 *204:4 *204:164 18.75 
18 *204:164 *1254:B1_N 9.72857 
19 *204:164 *1255:A1 12.3179 
*END

*D_NET *205 0.00779118
*CONN
*I *1282:A I *D sky130_fd_sc_hd__nand2_2
*I *1312:A I *D sky130_fd_sc_hd__nand2_1
*I *1276:S I *D sky130_fd_sc_hd__mux2_1
*I *1266:A1 I *D sky130_fd_sc_hd__a22o_1
*I *1277:A I *D sky130_fd_sc_hd__nand2_2
*I *1451:X O *D sky130_fd_sc_hd__clkbuf_2
*CAP
1 *1282:A 0.000431612
2 *1312:A 2.31277e-05
3 *1276:S 1.91209e-05
4 *1266:A1 0.000255861
5 *1277:A 0
6 *1451:X 8.09938e-05
7 *205:35 0.00134592
8 *205:25 0.00146288
9 *205:19 0.00109678
10 *205:6 0.000377355
11 *205:35 *1265:A1 0
12 *205:35 *1275:A1 7.35968e-05
13 *205:35 *1280:A1 0.000245342
14 *205:35 *1285:A1 9.91086e-05
15 *205:35 *1315:A1 0
16 *205:35 *207:132 0
17 *205:35 *218:8 3.38136e-05
18 *1266:A2 *1266:A1 8.1334e-05
19 *1266:A2 *1276:S 0
20 *1266:B2 *205:35 0
21 *1276:A0 *205:35 0.000138816
22 *1276:A1 *205:35 0.00014285
23 *1277:B *205:6 5.33005e-05
24 *1277:B *205:19 3.32731e-05
25 *1315:A0 *205:35 1.19402e-05
26 *1366:D *205:35 1.31516e-05
27 *1366:RESET_B *205:35 9.96331e-05
28 *1388:CLK *205:25 0.000172745
29 *1388:D *1282:A 0.000137983
30 *1388:D *205:19 0
31 *1390:D *205:35 9.90431e-05
32 *88:27 *1312:A 0
33 *88:27 *205:35 0.000362329
34 *88:36 *205:35 5.33005e-05
35 *97:35 *205:35 0
36 *97:52 *205:35 5.41794e-05
37 *112:12 *205:19 5.75896e-05
38 *142:10 *205:35 0
39 *151:32 *205:25 2.13481e-06
40 *151:32 *205:35 8.25843e-06
41 *169:12 *205:35 0
42 *169:33 *205:35 0
43 *171:125 *1282:A 0
44 *171:125 *205:19 0
45 *176:12 *1282:A 0.000292031
46 *176:20 *1282:A 0.000197858
47 *194:32 *1282:A 0.000152409
48 *194:32 *205:19 8.15095e-05
49 *204:63 *205:35 0
*RES
1 *1451:X *205:6 10.6571 
2 *205:6 *1277:A 9.3 
3 *205:6 *205:19 10.2679 
4 *205:19 *205:25 9.57143 
5 *205:25 *205:35 31.5179 
6 *205:35 *1266:A1 13.05 
7 *205:35 *1276:S 9.72857 
8 *205:25 *1312:A 9.72857 
9 *205:19 *1282:A 22.675 
*END

*D_NET *206 0.0182989
*CONN
*I *1451:A I *D sky130_fd_sc_hd__clkbuf_2
*I *1450:A I *D sky130_fd_sc_hd__clkbuf_4
*I *1317:A I *D sky130_fd_sc_hd__nand2_2
*I *1337:A I *D sky130_fd_sc_hd__nand2_2
*I *1327:A I *D sky130_fd_sc_hd__nand2_1
*I *1212:A I *D sky130_fd_sc_hd__nand2_1
*I *1332:A I *D sky130_fd_sc_hd__nand2_2
*I *1342:A I *D sky130_fd_sc_hd__nand2_1
*I *1322:A I *D sky130_fd_sc_hd__nand2_2
*I *1347:A I *D sky130_fd_sc_hd__nand2_1
*I *1452:X O *D sky130_fd_sc_hd__clkbuf_4
*CAP
1 *1451:A 0.000125009
2 *1450:A 0
3 *1317:A 2.9238e-05
4 *1337:A 3.13307e-05
5 *1327:A 0
6 *1212:A 0.000209173
7 *1332:A 0
8 *1342:A 0.000193784
9 *1322:A 0.000345104
10 *1347:A 3.65243e-05
11 *1452:X 0
12 *206:140 0.000784813
13 *206:129 0.000944304
14 *206:115 0.000351735
15 *206:109 0.000575666
16 *206:44 0.00073256
17 *206:36 0.00057564
18 *206:34 0.000455024
19 *206:28 0.000796612
20 *206:24 0.00164953
21 *206:4 0.0014862
22 *1212:A *1269:B2 0.000196269
23 *1322:A *214:18 3.99614e-06
24 *1342:A *207:18 0.000343793
25 *206:24 *1248:B2 0.00010096
26 *206:24 *1422:A 3.28848e-05
27 *206:28 *1248:B2 0.000134549
28 *206:34 *1269:B2 0.000439285
29 *206:44 *1348:A1 0.000333525
30 *206:115 *1234:B2 0.000129461
31 *206:115 *212:33 0
32 *206:129 *212:33 0
33 *206:140 *212:33 0
34 *1212:B *1212:A 5.33005e-05
35 *1213:A0 *1212:A 0
36 *1213:S *1212:A 1.98839e-05
37 *1241:C1 *206:24 0.000126439
38 *1249:A2 *1317:A 5.33005e-05
39 *1249:B1 *206:129 0.000184162
40 *1252:A2 *206:115 0
41 *1252:A2 *206:129 6.07532e-05
42 *1252:D1 *206:140 0
43 *1261:A2 *1347:A 0.000184246
44 *1261:A2 *206:44 0.000126426
45 *1262:A2 *206:24 0.00014051
46 *1274:C1 *206:24 0
47 *1322:B *1322:A 3.62509e-05
48 *1333:S *1342:A 6.55721e-05
49 *1337:B *1337:A 3.14078e-05
50 *1337:B *206:115 1.74352e-05
51 *1338:S *206:115 9.07572e-05
52 *1339:S *206:24 0.000432883
53 *1348:A0 *1322:A 3.17576e-05
54 *1348:A0 *206:44 0.000197212
55 *1348:S *206:44 8.46829e-05
56 *1353:D *206:28 1.82657e-05
57 *1353:D *206:34 0
58 *1361:CLK *1451:A 2.59355e-05
59 *1361:D *1451:A 0
60 *1365:CLK *206:129 0.000198698
61 *1365:CLK *206:140 0.000350844
62 *1393:CLK *206:140 0.000388146
63 *1408:CLK *206:24 3.67257e-05
64 *1408:D *206:115 6.65302e-05
65 *1409:CLK *206:129 0.000197984
66 *1410:CLK *206:24 7.15846e-05
67 *1410:RESET_B *206:24 0.000313357
68 *1416:CLK *1322:A 0.000168197
69 *86:37 *206:24 0.000153398
70 *86:37 *206:28 0.000111451
71 *87:17 *1212:A 1.15281e-05
72 *104:12 *206:24 0.000148911
73 *107:26 *1322:A 6.52251e-06
74 *107:30 *1322:A 7.32475e-05
75 *110:10 *1342:A 9.54798e-06
76 *110:14 *1342:A 0.000244982
77 *118:12 *206:24 0.000218203
78 *153:12 *1322:A 0
79 *153:42 *1322:A 0
80 *154:6 *206:115 7.43578e-06
81 *155:6 *206:44 5.04841e-06
82 *155:10 *206:34 1.98839e-05
83 *155:10 *206:36 1.98839e-05
84 *155:10 *206:44 0.000135028
85 *155:44 *206:34 0.00027323
86 *156:16 *1337:A 5.71472e-05
87 *156:16 *206:115 5.52302e-05
88 *156:29 *206:24 0
89 *158:30 *1347:A 0.000180951
90 *158:30 *206:44 5.33005e-05
91 *171:36 *1322:A 0.000141729
92 *171:94 *206:24 0.000133374
93 *174:50 *206:140 0
94 *174:61 *206:140 0
95 *175:29 *206:115 2.05443e-05
96 *175:64 *206:24 0.000410991
97 *175:64 *206:28 0.000651954
98 *178:20 *1212:A 0
99 *178:20 *206:34 0
100 *194:47 *1451:A 0.000137939
101 *194:47 *206:140 5.59013e-05
102 *194:49 *206:140 0.00015134
103 *204:164 *1451:A 0
104 *204:164 *206:140 0
*RES
1 *1452:X *206:4 9.3 
2 *206:4 *206:24 45.8036 
3 *206:24 *206:28 10.7857 
4 *206:28 *206:34 15.1429 
5 *206:34 *206:36 0.535714 
6 *206:36 *206:44 9.32143 
7 *206:44 *1347:A 11.0679 
8 *206:44 *1322:A 26.0857 
9 *206:36 *1342:A 23.9429 
10 *206:34 *1332:A 9.3 
11 *206:28 *1212:A 18.1393 
12 *206:4 *206:109 4.5 
13 *206:109 *206:115 12.1429 
14 *206:115 *1327:A 9.3 
15 *206:115 *1337:A 10.2464 
16 *206:109 *206:129 7.71429 
17 *206:129 *1317:A 14.3357 
18 *206:129 *206:140 14.6964 
19 *206:140 *1450:A 13.8 
20 *206:140 *1451:A 16.2821 
*END

*D_NET *207 0.0250573
*CONN
*I *1336:A0 I *D sky130_fd_sc_hd__mux2_1
*I *1281:A0 I *D sky130_fd_sc_hd__mux2_1
*I *1286:A0 I *D sky130_fd_sc_hd__mux2_1
*I *1321:A0 I *D sky130_fd_sc_hd__mux2_1
*I *1341:A0 I *D sky130_fd_sc_hd__mux2_1
*I *1331:A0 I *D sky130_fd_sc_hd__mux2_1
*I *1216:A0 I *D sky130_fd_sc_hd__mux2_1
*I *1346:A0 I *D sky130_fd_sc_hd__mux2_1
*I *1351:A0 I *D sky130_fd_sc_hd__mux2_1
*I *1326:A0 I *D sky130_fd_sc_hd__mux2_1
*I *1453:X O *D sky130_fd_sc_hd__buf_2
*CAP
1 *1336:A0 0.00048521
2 *1281:A0 0
3 *1286:A0 0
4 *1321:A0 0
5 *1341:A0 3.92213e-05
6 *1331:A0 0.000577938
7 *1216:A0 3.29309e-05
8 *1346:A0 0
9 *1351:A0 0
10 *1326:A0 0.000286206
11 *1453:X 0
12 *207:132 0.00130992
13 *207:117 0.00151442
14 *207:104 0.000392358
15 *207:78 0.000942087
16 *207:64 0.000921704
17 *207:51 0.00113362
18 *207:45 0.00159905
19 *207:18 0.00126938
20 *207:8 0.00125649
21 *207:4 0.000695379
22 *1216:A0 *1216:A1 9.90367e-05
23 *1326:A0 *214:37 4.72217e-05
24 *1326:A0 *238:6 0.000225385
25 *1331:A0 *1271:A1 0.00015739
26 *1331:A0 *1331:A1 3.92757e-05
27 *1336:A0 *1336:A1 0
28 *1336:A0 *225:12 9.7659e-05
29 *207:18 *1272:B2 4.33899e-05
30 *207:18 *238:6 5.65955e-05
31 *207:51 *1263:A1 0.000189564
32 *207:51 *242:10 0
33 *207:64 *1216:A1 0.000164951
34 *207:64 *274:12 3.18676e-05
35 *207:78 *1341:A1 4.46186e-06
36 *207:132 *1270:A1 7.80714e-06
37 *207:132 *1275:A1 0
38 *207:132 *1281:A1 9.90431e-05
39 *207:132 *1286:A1 5.71472e-05
40 *1216:S *1216:A0 0.00010096
41 *1219:A2 *207:132 0.000383288
42 *1242:B *207:132 0
43 *1248:B1 *207:51 2.21972e-05
44 *1270:A2 *207:132 3.80808e-05
45 *1274:B1 *207:132 6.39901e-05
46 *1274:C1 *1331:A0 0
47 *1274:C1 *207:78 0.000163989
48 *1280:A0 *207:132 0.000137224
49 *1286:S *207:132 0.000135028
50 *1321:S *207:104 3.10821e-05
51 *1321:S *207:117 2.56601e-05
52 *1330:A0 *1336:A0 4.35131e-05
53 *1333:S *207:18 0
54 *1336:S *1336:A0 0.00026703
55 *1340:A0 *1331:A0 0.000168939
56 *1342:A *207:18 0.000343793
57 *1344:A0 *207:51 0
58 *1353:CLK *207:18 0.000375596
59 *1354:D *207:51 0
60 *1355:RESET_B *207:51 0.000329101
61 *1367:D *207:117 3.69047e-06
62 *1367:RESET_B *207:78 0
63 *1367:RESET_B *207:132 0.000264407
64 *1395:D *207:78 9.25014e-06
65 *1395:D *207:104 0.000118195
66 *1395:RESET_B *207:64 7.16833e-05
67 *1405:D *207:18 0.000276211
68 *1406:D *207:45 0.000105163
69 *1406:D *207:51 0.000150625
70 *1407:CLK *207:51 0
71 *1407:D *1336:A0 0
72 *1411:CLK *207:78 0.000200406
73 *1411:CLK *207:104 4.73656e-05
74 *1415:D *207:18 8.03176e-05
75 *88:42 *207:132 0.000839287
76 *102:29 *207:117 1.79326e-05
77 *102:29 *207:132 8.07397e-06
78 *103:8 *207:51 0
79 *104:12 *207:78 0
80 *106:35 *207:51 1.62539e-05
81 *106:47 *207:51 0.000139842
82 *110:10 *207:18 0.000124822
83 *111:26 *207:51 2.69016e-05
84 *118:12 *1341:A0 5.52302e-05
85 *118:12 *207:78 0.000154046
86 *118:12 *207:132 0
87 *140:12 *1216:A0 1.02821e-05
88 *140:12 *207:64 8.02307e-05
89 *142:10 *207:104 0
90 *142:10 *207:132 0.000295512
91 *156:29 *1331:A0 0.000107007
92 *156:29 *207:78 2.37761e-05
93 *160:14 *207:8 9.41642e-05
94 *160:29 *207:8 5.33005e-05
95 *171:40 *1336:A0 0.000133477
96 *171:125 *1331:A0 0.000150625
97 *171:125 *207:78 7.05447e-05
98 *171:125 *207:132 0.00176018
99 *173:12 *207:18 0.000151827
100 *173:22 *1326:A0 0.000268923
101 *173:22 *207:18 0.000778804
102 *175:64 *207:78 0.000279082
103 *178:28 *1326:A0 0.000180251
104 *179:18 *207:51 0.00018459
105 *179:20 *207:51 0.000108118
106 *179:49 *207:51 0.000296306
107 *179:56 *207:51 0.000284399
108 *185:52 *207:132 0
109 *187:78 *207:18 0.000335215
110 *189:27 *207:45 3.67142e-05
111 *189:53 *1336:A0 1.20814e-05
112 *189:53 *207:8 0
113 *189:53 *207:45 1.70865e-05
114 *189:69 *1331:A0 0.00010685
115 *189:88 *1331:A0 0
116 *190:16 *207:64 0.000102197
117 *190:16 *207:104 0
118 *190:16 *207:117 0
119 *190:33 *207:64 1.98839e-05
120 *205:35 *207:132 0
*RES
1 *1453:X *207:4 9.3 
2 *207:4 *207:8 4.33929 
3 *207:8 *207:18 33.0536 
4 *207:18 *1326:A0 23.9964 
5 *207:18 *1351:A0 9.3 
6 *207:8 *1346:A0 9.3 
7 *207:4 *207:45 5.46429 
8 *207:45 *207:51 26.7321 
9 *207:51 *1216:A0 10.6571 
10 *207:51 *207:64 13.6786 
11 *207:64 *207:78 18.6786 
12 *207:78 *1331:A0 26.2107 
13 *207:78 *1341:A0 14.3357 
14 *207:64 *207:104 3.82143 
15 *207:104 *1321:A0 13.8 
16 *207:104 *207:117 7.30357 
17 *207:117 *1286:A0 9.3 
18 *207:117 *207:132 45.1429 
19 *207:132 *1281:A0 9.3 
20 *207:45 *1336:A0 28.1036 
*END

*D_NET *208 0.0143807
*CONN
*I *1301:A0 I *D sky130_fd_sc_hd__mux2_1
*I *1311:A0 I *D sky130_fd_sc_hd__mux2_1
*I *1306:A0 I *D sky130_fd_sc_hd__mux2_1
*I *1291:A0 I *D sky130_fd_sc_hd__mux2_1
*I *1316:A0 I *D sky130_fd_sc_hd__mux2_1
*I *1296:A0 I *D sky130_fd_sc_hd__mux2_1
*I *1454:X O *D sky130_fd_sc_hd__dlymetal6s2s_1
*CAP
1 *1301:A0 0.000713314
2 *1311:A0 0
3 *1306:A0 0.00013092
4 *1291:A0 5.5234e-05
5 *1316:A0 0.000824572
6 *1296:A0 0.000484475
7 *1454:X 2.3932e-05
8 *208:68 0.000552809
9 *208:62 0.00089376
10 *208:54 0.00196894
11 *208:31 0.00176296
12 *208:8 0.000718268
13 *1291:A0 *1291:A1 5.33005e-05
14 *1296:A0 *1269:B2 0.000158999
15 *1301:A0 *1268:A1 0
16 *1301:A0 *1301:A1 0.00014285
17 *1306:A0 *262:6 0.000141734
18 *1316:A0 *1258:A1 3.64349e-05
19 *1316:A0 *1258:B2 6.26774e-06
20 *208:62 *1268:A1 2.61528e-05
21 *208:68 *1291:A1 0.000472512
22 *1251:A2 *208:8 2.59355e-05
23 *1258:A2 *1316:A0 6.55592e-05
24 *1258:B1 *1316:A0 1.92789e-05
25 *1258:C1 *1316:A0 3.35579e-05
26 *1259:C1 *1316:A0 0.000232399
27 *1268:A2 *208:62 0.000257003
28 *1268:B1 *208:62 0.000174232
29 *1269:C1 *1296:A0 9.90431e-05
30 *1289:S *1291:A0 2.59355e-05
31 *1289:S *1306:A0 0.000123288
32 *1289:S *208:68 6.05161e-06
33 *1295:A0 *1316:A0 2.14658e-05
34 *1295:S *1316:A0 0.000180777
35 *1295:S *208:31 0
36 *1296:S *1296:A0 0
37 *1296:S *208:31 0
38 *1307:B *208:62 0.000227526
39 *1307:B *208:68 0.000232273
40 *1316:S *1316:A0 5.71472e-05
41 *1368:CLK *1301:A0 0
42 *1368:CLK *208:54 0
43 *1368:RESET_B *208:54 0.000469469
44 *1376:CLK *1301:A0 3.97657e-05
45 *1376:D *1301:A0 7.77652e-05
46 *1378:D *208:54 0.000104974
47 *1391:D *1316:A0 0.000122101
48 *1437:A *1296:A0 0.00010177
49 *101:24 *1296:A0 0.000131868
50 *121:14 *208:8 2.59355e-05
51 *146:19 *1301:A0 9.25014e-06
52 *146:19 *208:54 5.41794e-05
53 *146:44 *1301:A0 6.73939e-05
54 *146:44 *208:62 9.22103e-06
55 *146:44 *208:68 0.000193325
56 *148:14 *208:54 0.000234705
57 *148:32 *1301:A0 0
58 *148:32 *208:54 3.56976e-05
59 *150:6 *208:68 1.74352e-05
60 *160:29 *1296:A0 0
61 *167:31 *1296:A0 0.000226907
62 *168:25 *208:54 0.00040963
63 *168:25 *208:62 9.71197e-05
64 *176:28 *208:54 6.78336e-05
65 *182:92 *208:31 0
66 *182:92 *208:54 0
67 *182:106 *208:54 0.000175512
68 *194:10 *208:54 8.15939e-05
69 *195:12 *1301:A0 0
70 *196:77 *1301:A0 0
71 *196:90 *1296:A0 7.90803e-05
72 *196:90 *208:31 0.000415462
73 *196:90 *208:54 0.000171375
74 *199:19 *1296:A0 1.24368e-05
*RES
1 *1454:X *208:8 14.3357 
2 *208:8 *1296:A0 24.9607 
3 *208:8 *208:31 5.28571 
4 *208:31 *1316:A0 29.5679 
5 *208:31 *208:54 27.0357 
6 *208:54 *208:62 13.2857 
7 *208:62 *208:68 8.48214 
8 *208:68 *1291:A0 10.2464 
9 *208:68 *1306:A0 21.3 
10 *208:62 *1311:A0 9.3 
11 *208:54 *1301:A0 26.4607 
*END

*D_NET *209 0.0152424
*CONN
*I *1236:D I *D sky130_fd_sc_hd__and4bb_2
*I *1224:D I *D sky130_fd_sc_hd__and4bb_2
*I *1218:D_N I *D sky130_fd_sc_hd__nor4b_1
*I *1211:B I *D sky130_fd_sc_hd__and4_1
*I *1220:B I *D sky130_fd_sc_hd__nor2_1
*I *1217:D I *D sky130_fd_sc_hd__and4b_2
*I *1239:C I *D sky130_fd_sc_hd__and4b_2
*I *1222:A I *D sky130_fd_sc_hd__nor4b_1
*I *1228:D I *D sky130_fd_sc_hd__and4bb_2
*I *1238:A_N I *D sky130_fd_sc_hd__and4b_2
*I *1455:X O *D sky130_fd_sc_hd__clkbuf_2
*CAP
1 *1236:D 0.000216146
2 *1224:D 5.80996e-05
3 *1218:D_N 0
4 *1211:B 0.000175054
5 *1220:B 0.00016014
6 *1217:D 0
7 *1239:C 0.000364147
8 *1222:A 0.000297437
9 *1228:D 0
10 *1238:A_N 0
11 *1455:X 3.28662e-05
12 *209:126 0.000243089
13 *209:106 0.000612674
14 *209:98 0.0012499
15 *209:82 0.000884874
16 *209:65 0.000497472
17 *209:37 0.000494716
18 *209:33 0.000553755
19 *209:25 0.000953857
20 *209:6 0.000449983
21 *1220:B *1226:B 7.73758e-05
22 *1224:D *1227:B2 0.000265447
23 *1236:D *1247:A1 2.14658e-05
24 *1239:C *259:8 9.25014e-06
25 *209:37 *1303:A1 3.15645e-05
26 *209:37 *259:8 1.91512e-05
27 *209:82 *1227:B2 0.000318107
28 *209:98 *1227:B2 9.00935e-05
29 *209:98 *210:29 0.000309933
30 *209:106 *254:12 2.42516e-05
31 *1217:A_N *209:106 0.000122101
32 *1222:B *1222:A 1.59689e-05
33 *1222:B *209:37 1.88048e-05
34 *1222:D_N *1222:A 6.07085e-05
35 *1222:D_N *209:37 1.02504e-05
36 *1225:D *209:98 9.60939e-05
37 *1226:A *1220:B 0
38 *1226:C *1220:B 0.000197984
39 *1226:D *1220:B 8.46829e-05
40 *1226:D *209:106 9.66977e-05
41 *1227:A2 *209:98 4.04353e-05
42 *1230:C1 *209:37 0
43 *1233:B_N *209:98 8.36871e-05
44 *1233:B_N *209:126 8.11174e-05
45 *1238:B *209:25 6.05161e-06
46 *1238:C *1236:D 5.52302e-05
47 *1238:D *209:25 0.000617355
48 *1238:D *209:33 5.7661e-06
49 *1239:B *1239:C 0
50 *1269:B1 *1211:B 0.000258199
51 *1292:B *1222:A 7.6644e-05
52 *1380:CLK *1236:D 0.00010415
53 *1380:CLK *209:33 5.33005e-05
54 *1380:RESET_B *209:25 0.000349361
55 *1380:RESET_B *209:33 0.000199294
56 *1381:D *209:6 4.0342e-06
57 *1381:D *209:25 3.30417e-05
58 *1381:RESET_B *209:25 4.85631e-05
59 *1427:A *1211:B 0.00012544
60 *1435:A *209:25 8.00653e-05
61 *1437:A *209:106 0.00040576
62 *1456:A *1222:A 0.000114097
63 *1469:A *209:98 8.86413e-05
64 *88:12 *1220:B 9.25014e-06
65 *92:10 *1220:B 2.26327e-05
66 *93:14 *1222:A 5.52238e-05
67 *95:18 *1224:D 0.000136958
68 *95:18 *209:98 0.000136958
69 *95:33 *209:98 3.17163e-05
70 *95:42 *209:98 3.07555e-05
71 *96:8 *209:98 0
72 *99:55 *209:106 0.000350136
73 *160:29 *209:106 0.000407474
74 *167:10 *209:98 4.87854e-05
75 *167:10 *209:126 3.97677e-05
76 *173:63 *1236:D 0.00011403
77 *182:10 *209:106 7.02611e-05
78 *197:120 *209:126 9.41642e-05
79 *198:49 *1220:B 1.02504e-05
80 *199:93 *209:106 9.71197e-05
81 *200:18 *1236:D 2.04825e-05
82 *200:50 *1239:C 0
83 *200:72 *1239:C 9.90431e-05
84 *200:87 *1239:C 0.000175251
85 *201:25 *209:25 3.8274e-05
86 *201:25 *209:33 0.000357243
87 *201:46 *209:33 0.000132248
88 *201:50 *1239:C 6.8646e-06
89 *201:50 *209:37 0.000412333
90 *201:78 *209:33 5.52302e-05
91 *201:78 *209:65 8.57023e-05
92 *201:78 *209:82 0.000166485
93 *201:78 *209:98 3.57366e-05
94 *201:82 *1239:C 0
95 *201:92 *1239:C 0
96 *202:10 *209:98 4.00025e-05
97 *202:16 *209:98 1.76135e-05
*RES
1 *1455:X *209:6 9.83571 
2 *209:6 *1238:A_N 9.3 
3 *209:6 *209:25 20.5714 
4 *209:25 *209:33 8.91071 
5 *209:33 *209:37 9.78571 
6 *209:37 *1228:D 13.8 
7 *209:37 *1222:A 19.8536 
8 *209:33 *209:65 0.946429 
9 *209:65 *1239:C 24.05 
10 *209:65 *209:82 3.83929 
11 *209:82 *209:98 22.8571 
12 *209:98 *209:106 21.3929 
13 *209:106 *1217:D 9.3 
14 *209:106 *1220:B 22.4071 
15 *209:98 *209:126 1.76786 
16 *209:126 *1211:B 22.3 
17 *209:126 *1218:D_N 9.3 
18 *209:82 *1224:D 11.8893 
19 *209:25 *1236:D 22.4071 
*END

*D_NET *210 0.00754099
*CONN
*I *1225:B I *D sky130_fd_sc_hd__nor4_1
*I *1226:B I *D sky130_fd_sc_hd__or4_2
*I *1233:A_N I *D sky130_fd_sc_hd__and4bb_2
*I *1235:B I *D sky130_fd_sc_hd__and4b_2
*I *1229:A_N I *D sky130_fd_sc_hd__and4bb_1
*I *1456:X O *D sky130_fd_sc_hd__buf_1
*CAP
1 *1225:B 0
2 *1226:B 0.000298068
3 *1233:A_N 0
4 *1235:B 9.8291e-05
5 *1229:A_N 5.6627e-05
6 *1456:X 0.000153702
7 *210:52 0.000763956
8 *210:33 0.000606268
9 *210:29 0.000683766
10 *210:10 0.000852006
11 *1235:B *1227:A1 0
12 *1220:B *1226:B 7.73758e-05
13 *1224:B_N *210:29 8.25098e-05
14 *1226:A *1226:B 0.000334254
15 *1226:A *210:52 0.000195092
16 *1227:A2 *210:29 8.07951e-05
17 *1227:A2 *210:52 0.000135028
18 *1229:C *210:29 5.922e-05
19 *1230:C1 *210:29 2.06112e-05
20 *1232:C *1226:B 7.83587e-05
21 *1247:C1 *210:10 0.000290279
22 *1258:B1 *1226:B 0
23 *1273:B1 *1226:B 0
24 *1445:A *1229:A_N 4.87953e-05
25 *1445:A *210:29 8.26612e-05
26 *86:6 *210:52 0.000256992
27 *95:42 *210:29 0
28 *96:8 *210:29 9.60875e-05
29 *100:8 *210:29 4.46186e-06
30 *102:10 *1226:B 0
31 *102:29 *1226:B 5.41494e-05
32 *102:29 *210:52 5.11684e-05
33 *103:8 *1226:B 0.000147219
34 *116:14 *210:10 0.000143352
35 *116:14 *210:29 0.000116121
36 *198:49 *1226:B 1.87097e-05
37 *199:27 *1235:B 0.000129947
38 *199:27 *210:33 9.8045e-05
39 *199:34 *1235:B 5.33005e-05
40 *202:16 *1235:B 3.10885e-05
41 *202:16 *210:33 9.00763e-05
42 *202:16 *210:52 0.000177821
43 *202:25 *210:52 0.000764849
44 *209:98 *210:29 0.000309933
*RES
1 *1456:X *210:10 22.0679 
2 *210:10 *1229:A_N 10.2464 
3 *210:10 *210:29 19.5 
4 *210:29 *210:33 5.83929 
5 *210:33 *1235:B 15.675 
6 *210:33 *210:52 16.1607 
7 *210:52 *1233:A_N 9.3 
8 *210:52 *1226:B 26.4607 
9 *210:29 *1225:B 9.3 
*END

*D_NET *211 0.00119666
*CONN
*I *1434:A I *D sky130_fd_sc_hd__buf_2
*I *1464:X O *D sky130_fd_sc_hd__clkbuf_1
*CAP
1 *1434:A 0.000331921
2 *1464:X 0.000331921
3 *1434:A *212:8 0.000268682
4 *1465:A *1434:A 8.86454e-05
5 *186:38 *1434:A 0.000175493
*RES
1 *1464:X *1434:A 36.3143 
*END

*D_NET *212 0.00862376
*CONN
*I *1425:A I *D sky130_fd_sc_hd__dlymetal6s2s_1
*I *1424:A I *D sky130_fd_sc_hd__buf_2
*I *1465:X O *D sky130_fd_sc_hd__buf_1
*CAP
1 *1425:A 0
2 *1424:A 0.000107676
3 *1465:X 0.000292757
4 *212:33 0.00138754
5 *212:8 0.00178798
6 *212:33 *1254:A1 0.000457969
7 *212:33 *1339:A1 4.08555e-06
8 *1249:B1 *212:33 0.000206491
9 *1329:A0 *212:33 0
10 *1361:D *212:33 4.75812e-05
11 *1365:D *212:33 0.000128154
12 *1365:RESET_B *212:33 0.000308655
13 *1400:RESET_B *1424:A 2.94103e-05
14 *1400:RESET_B *212:33 1.52978e-05
15 *1408:RESET_B *212:33 0.000121456
16 *1409:D *212:33 0.000128154
17 *1409:RESET_B *212:33 0.000150625
18 *1434:A *212:8 0.000268682
19 *145:20 *212:33 0.00127258
20 *154:19 *1424:A 0
21 *154:19 *212:33 0
22 *174:50 *212:33 0.000290037
23 *174:61 *212:33 0.0001746
24 *175:29 *212:33 0.000252856
25 *175:42 *212:33 0
26 *175:193 *212:33 0.000317609
27 *176:6 *212:33 4.18895e-05
28 *176:12 *212:33 9.60939e-05
29 *179:8 *1424:A 0.000232399
30 *179:85 *1424:A 1.02821e-05
31 *179:85 *212:8 9.71197e-05
32 *179:97 *212:33 0.000156952
33 *186:8 *1424:A 0.000186669
34 *186:8 *212:8 3.14078e-05
35 *186:38 *212:8 2.07491e-05
36 *194:45 *212:33 0
37 *194:47 *212:33 0
38 *206:115 *212:33 0
39 *206:129 *212:33 0
40 *206:140 *212:33 0
*RES
1 *1465:X *212:8 20.0857 
2 *212:8 *1424:A 17.1214 
3 *212:8 *212:33 45.5536 
4 *212:33 *1425:A 9.3 
*END

*D_NET *213 0.00796563
*CONN
*I *1423:A I *D sky130_fd_sc_hd__buf_1
*I *1422:A I *D sky130_fd_sc_hd__clkbuf_2
*I *1466:X O *D sky130_fd_sc_hd__buf_1
*CAP
1 *1423:A 0.000269631
2 *1422:A 0.00209571
3 *1466:X 0.00019119
4 *213:6 0.00255653
5 *1422:A *1234:A1 3.80833e-05
6 *1422:A *229:10 5.52302e-05
7 *213:6 *1234:A1 7.07155e-06
8 *213:6 *227:6 4.46231e-06
9 *1215:A0 *1422:A 8.43535e-06
10 *1215:S *1422:A 0.000403302
11 *1338:A0 *1423:A 0
12 *1354:D *1422:A 9.71197e-05
13 *1392:RESET_B *1423:A 5.52238e-05
14 *1408:CLK *1422:A 0.000244468
15 *1410:CLK *1422:A 0.000102197
16 *1452:A *1423:A 9.34004e-05
17 *171:94 *1422:A 0.000811913
18 *173:12 *1422:A 5.7661e-06
19 *174:12 *1423:A 7.76647e-05
20 *174:44 *1423:A 2.42082e-05
21 *175:29 *1422:A 0.000158912
22 *175:42 *1423:A 0
23 *186:38 *1423:A 0.000609054
24 *186:49 *1423:A 2.31791e-05
25 *206:24 *1422:A 3.28848e-05
*RES
1 *1466:X *213:6 11.4786 
2 *213:6 *1422:A 40.2821 
3 *213:6 *1423:A 26.8536 
*END

*D_NET *214 0.00962206
*CONN
*I *1421:A I *D sky130_fd_sc_hd__dlymetal6s2s_1
*I *1420:A I *D sky130_fd_sc_hd__buf_2
*I *1467:X O *D sky130_fd_sc_hd__buf_1
*CAP
1 *1421:A 4.59241e-05
2 *1420:A 0.000106991
3 *1467:X 0.000639214
4 *214:37 0.0020552
5 *214:18 0.00275548
6 *1421:A *1256:A1 4.58194e-05
7 *214:37 *1245:A1 0.000290986
8 *214:37 *1247:A1 5.7836e-06
9 *214:37 *1289:A1 0.000196269
10 *1236:A_N *214:37 7.54868e-05
11 *1236:C *214:37 0
12 *1245:B1 *214:37 0.000311028
13 *1262:C1 *214:37 1.19834e-05
14 *1289:S *214:37 0.000363252
15 *1293:A0 *214:37 7.09112e-05
16 *1302:A *214:37 1.77011e-05
17 *1303:A0 *214:37 0
18 *1304:S *214:37 0.000382098
19 *1322:A *214:18 3.99614e-06
20 *1322:B *214:18 0
21 *1323:A0 *214:18 8.54803e-05
22 *1323:S *214:18 6.5185e-05
23 *1324:S *214:37 0.000359568
24 *1326:A0 *214:37 4.72217e-05
25 *1380:CLK *214:37 0
26 *1398:RESET_B *214:37 0
27 *1399:D *214:37 0.000126439
28 *1447:A *214:37 8.22793e-06
29 *107:10 *214:37 6.09572e-05
30 *107:18 *214:37 0.000109224
31 *109:41 *214:37 0.000151163
32 *149:24 *214:37 1.6116e-05
33 *153:12 *214:18 0.000181916
34 *153:12 *214:37 3.34366e-05
35 *153:42 *214:37 0.000759566
36 *171:36 *1420:A 0.000146724
37 *171:36 *214:18 1.82549e-05
38 *173:101 *214:37 3.66521e-06
39 *183:16 *1421:A 2.79421e-05
40 *200:18 *214:37 4.2855e-05
*RES
1 *1467:X *214:18 29.3714 
2 *214:18 *1420:A 11.8893 
3 *214:18 *214:37 49.6607 
4 *214:37 *1421:A 14.7464 
*END

*D_NET *215 0.00126331
*CONN
*I *1243:A1 I *D sky130_fd_sc_hd__o21ba_1
*I *1278:A1 I *D sky130_fd_sc_hd__mux2_1
*I *1360:Q O *D sky130_fd_sc_hd__dfrtp_1
*CAP
1 *1243:A1 0.000119691
2 *1278:A1 8.2732e-05
3 *1360:Q 0.000104227
4 *215:10 0.00030665
5 *1243:A2 *1243:A1 0.000114168
6 *1243:A2 *1278:A1 0.000247471
7 *1243:B1_N *1278:A1 0.000175998
8 *1278:S *1278:A1 5.71472e-05
9 *175:193 *1278:A1 5.52238e-05
10 *185:25 *215:10 0
*RES
1 *1360:Q *215:10 19.9429 
2 *215:10 *1278:A1 12.8536 
3 *215:10 *1243:A1 12.3536 
*END

*D_NET *216 0.0029687
*CONN
*I *1279:A1 I *D sky130_fd_sc_hd__mux2_1
*I *1254:A1 I *D sky130_fd_sc_hd__o21ba_1
*I *1361:Q O *D sky130_fd_sc_hd__dfrtp_1
*CAP
1 *1279:A1 0
2 *1254:A1 0.000357386
3 *1361:Q 0.000409862
4 *216:14 0.000767248
5 *1253:A *1254:A1 0
6 *1254:A2 *1254:A1 5.45515e-05
7 *1254:B1_N *1254:A1 0
8 *1255:B1 *1254:A1 1.21258e-05
9 *1279:A0 *1254:A1 0.000248486
10 *1279:S *1254:A1 0.000175892
11 *1279:S *216:14 4.27935e-05
12 *1361:D *1254:A1 1.02504e-05
13 *174:61 *1254:A1 0.000171375
14 *184:42 *216:14 6.81335e-05
15 *184:48 *216:14 7.83659e-05
16 *204:164 *1254:A1 0.000114265
17 *212:33 *1254:A1 0.000457969
*RES
1 *1361:Q *216:14 23.6929 
2 *216:14 *1254:A1 27.7464 
3 *216:14 *1279:A1 9.3 
*END

*D_NET *217 0.00214969
*CONN
*I *1280:A1 I *D sky130_fd_sc_hd__mux2_1
*I *1265:A1 I *D sky130_fd_sc_hd__o21ba_1
*I *1362:Q O *D sky130_fd_sc_hd__dfrtp_1
*CAP
1 *1280:A1 0.000257596
2 *1265:A1 0.000245207
3 *1362:Q 0
4 *217:4 0.000502803
5 *1280:A1 *1285:A1 3.69047e-06
6 *1362:D *1280:A1 0
7 *1366:CLK *1280:A1 0.000270326
8 *1366:RESET_B *1265:A1 0.000181796
9 *97:35 *1265:A1 6.65398e-05
10 *142:10 *1280:A1 0
11 *169:33 *1280:A1 9.45471e-05
12 *186:76 *1265:A1 1.15172e-05
13 *186:76 *1280:A1 0.000270326
14 *205:35 *1265:A1 0
15 *205:35 *1280:A1 0.000245342
*RES
1 *1362:Q *217:4 9.3 
2 *217:4 *1265:A1 22.1214 
3 *217:4 *1280:A1 25.6929 
*END

*D_NET *218 0.00143135
*CONN
*I *1281:A1 I *D sky130_fd_sc_hd__mux2_1
*I *1275:A1 I *D sky130_fd_sc_hd__o22a_1
*I *1363:Q O *D sky130_fd_sc_hd__dfrtp_1
*CAP
1 *1281:A1 0.0001935
2 *1275:A1 0.000196591
3 *1363:Q 6.24483e-05
4 *218:8 0.000452539
5 *1363:D *1281:A1 0.000232399
6 *204:63 *1275:A1 7.6644e-05
7 *204:63 *1281:A1 1.07719e-05
8 *205:35 *1275:A1 7.35968e-05
9 *205:35 *218:8 3.38136e-05
10 *207:132 *1275:A1 0
11 *207:132 *1281:A1 9.90431e-05
*RES
1 *1363:Q *218:8 15.1393 
2 *218:8 *1275:A1 17.6214 
3 *218:8 *1281:A1 18.0321 
*END

*D_NET *219 0.00291355
*CONN
*I *1234:B2 I *D sky130_fd_sc_hd__a22o_1
*I *1328:A1 I *D sky130_fd_sc_hd__mux2_1
*I *1400:Q O *D sky130_fd_sc_hd__dfrtp_1
*CAP
1 *1234:B2 0.000334342
2 *1328:A1 5.36452e-05
3 *1400:Q 0.000214091
4 *219:8 0.000602078
5 *1234:B2 *1234:A1 2.89114e-05
6 *1252:A2 *1234:B2 1.02504e-05
7 *1328:A0 *1234:B2 0.000264844
8 *1328:A0 *1328:A1 0.000174805
9 *1330:S *1328:A1 1.02504e-05
10 *1331:S *219:8 2.59355e-05
11 *1400:RESET_B *219:8 7.70134e-05
12 *1408:CLK *1234:B2 5.52302e-05
13 *104:44 *1234:B2 0.000406611
14 *154:19 *1234:B2 0.000363245
15 *154:19 *1328:A1 4.73656e-05
16 *154:21 *1328:A1 0.000115474
17 *175:29 *1234:B2 0
18 *189:88 *1234:B2 0
19 *206:115 *1234:B2 0.000129461
*RES
1 *1400:Q *219:8 17.6214 
2 *219:8 *1328:A1 16.05 
3 *219:8 *1234:B2 24.4786 
*END

*D_NET *220 0.00497662
*CONN
*I *1252:A1 I *D sky130_fd_sc_hd__a2111o_1
*I *1329:A1 I *D sky130_fd_sc_hd__mux2_1
*I *1401:Q O *D sky130_fd_sc_hd__dfrtp_1
*CAP
1 *1252:A1 0.000564939
2 *1329:A1 7.47643e-05
3 *1401:Q 0.000624836
4 *220:8 0.00126454
5 *1252:A1 *1241:A1 0.000272679
6 *1252:A1 *1318:A1 7.83587e-05
7 *1241:B1 *1252:A1 9.20457e-05
8 *1241:D1 *1252:A1 0
9 *1252:A2 *1252:A1 0.000106149
10 *1286:S *1252:A1 0.000219711
11 *1318:S *1252:A1 0.000362538
12 *1337:B *1252:A1 0.000262408
13 *1337:B *1329:A1 7.83659e-05
14 *1338:A0 *220:8 3.18676e-05
15 *1338:S *220:8 0.000114828
16 *1401:D *1252:A1 3.34366e-05
17 *1401:D *1329:A1 7.6644e-05
18 *103:45 *1252:A1 0.000243627
19 *104:44 *1252:A1 0.000125665
20 *112:12 *1252:A1 3.92854e-05
21 *152:25 *1252:A1 0.00016284
22 *156:16 *1329:A1 5.33005e-05
23 *175:64 *1252:A1 9.37904e-05
*RES
1 *1401:Q *220:8 20.9071 
2 *220:8 *1329:A1 15.3714 
3 *220:8 *1252:A1 30.675 
*END

*D_NET *221 0.00373599
*CONN
*I *1330:A1 I *D sky130_fd_sc_hd__mux2_1
*I *1260:A1 I *D sky130_fd_sc_hd__a22o_1
*I *1402:Q O *D sky130_fd_sc_hd__dfrtp_1
*CAP
1 *1330:A1 0.000258654
2 *1260:A1 0.000674991
3 *1402:Q 0
4 *221:4 0.000933645
5 *1260:A1 *1271:B2 7.07908e-05
6 *1330:A1 *1271:B2 0.000196276
7 *1330:A1 *1336:A1 3.34295e-05
8 *1260:A2 *1260:A1 0.000743433
9 *1330:A0 *1330:A1 0.000262292
10 *1335:A0 *1260:A1 9.71197e-05
11 *1336:S *1260:A1 0
12 *1402:D *1330:A1 0.000232399
13 *1403:CLK *1260:A1 2.31791e-05
14 *1426:A *1260:A1 9.76491e-05
15 *171:36 *1260:A1 1.74352e-05
16 *179:16 *1260:A1 1.63337e-05
17 *189:53 *1260:A1 7.83659e-05
*RES
1 *1402:Q *221:4 9.3 
2 *221:4 *1260:A1 31.7643 
3 *221:4 *1330:A1 25.3893 
*END

*D_NET *222 0.00181202
*CONN
*I *1271:A1 I *D sky130_fd_sc_hd__a22o_1
*I *1331:A1 I *D sky130_fd_sc_hd__mux2_1
*I *1403:Q O *D sky130_fd_sc_hd__dfrtp_1
*CAP
1 *1271:A1 0.000303746
2 *1331:A1 3.39848e-05
3 *1403:Q 0.000223576
4 *222:8 0.000561307
5 *1271:A1 *1271:B2 0
6 *1274:C1 *1271:A1 0
7 *1331:A0 *1271:A1 0.00015739
8 *1331:A0 *1331:A1 3.92757e-05
9 *1403:D *1271:A1 0
10 *104:29 *1271:A1 2.44318e-05
11 *104:40 *1271:A1 0.000271345
12 *179:8 *222:8 6.97409e-05
13 *179:16 *222:8 4.88631e-05
14 *189:69 *1331:A1 7.83587e-05
*RES
1 *1403:Q *222:8 16.8 
2 *222:8 *1331:A1 14.8357 
3 *222:8 *1271:A1 20.5679 
*END

*D_NET *223 0.00222027
*CONN
*I *1333:A1 I *D sky130_fd_sc_hd__mux2_1
*I *1240:B2 I *D sky130_fd_sc_hd__a221o_1
*I *1404:Q O *D sky130_fd_sc_hd__dfrtp_1
*CAP
1 *1333:A1 8.04359e-05
2 *1240:B2 0.000187226
3 *1404:Q 0.000307936
4 *223:12 0.000575599
5 *1240:B2 *1237:A1 0
6 *1240:B2 *1237:B2 0
7 *1240:B2 *1240:A1 6.26774e-06
8 *223:12 *1237:A1 0.000123295
9 *223:12 *1323:A1 0
10 *1240:C1 *1240:B2 0.000152333
11 *1323:A0 *1333:A1 4.18895e-05
12 *1323:A0 *223:12 0.000142856
13 *1333:A0 *1333:A1 1.21258e-05
14 *1333:S *1333:A1 5.52302e-05
15 *1343:A0 *223:12 0
16 *1396:RESET_B *1333:A1 4.58194e-05
17 *1396:RESET_B *223:12 7.48091e-05
18 *175:76 *1240:B2 0.000329823
19 *175:78 *1240:B2 8.08022e-05
20 *177:76 *1240:B2 3.82227e-06
*RES
1 *1404:Q *223:12 24.6393 
2 *223:12 *1240:B2 23.7152 
3 *223:12 *1333:A1 11.0679 
*END

*D_NET *224 0.00224592
*CONN
*I *1334:A1 I *D sky130_fd_sc_hd__mux2_1
*I *1247:B2 I *D sky130_fd_sc_hd__a221o_1
*I *1405:Q O *D sky130_fd_sc_hd__dfrtp_1
*CAP
1 *1334:A1 7.8192e-05
2 *1247:B2 0.000380349
3 *1405:Q 6.89841e-05
4 *224:8 0.000527525
5 *1247:B2 *1247:A1 1.28809e-05
6 *1247:C1 *1247:B2 1.02504e-05
7 *1352:CLK *1247:B2 0.000198738
8 *1352:D *1247:B2 0.000104974
9 *110:6 *1247:B2 1.28809e-05
10 *110:10 *1247:B2 0.0004825
11 *110:10 *1334:A1 0.000150618
12 *116:14 *1247:B2 1.08359e-05
13 *175:68 *224:8 0.000119125
14 *175:70 *1334:A1 0
15 *178:20 *224:8 8.02593e-05
16 *200:87 *1247:B2 7.80714e-06
17 *201:92 *1247:B2 0
*RES
1 *1405:Q *224:8 15.9786 
2 *224:8 *1247:B2 24.6616 
3 *224:8 *1334:A1 15.7464 
*END

*D_NET *225 0.00205689
*CONN
*I *1335:A1 I *D sky130_fd_sc_hd__mux2_1
*I *1263:A1 I *D sky130_fd_sc_hd__a211o_1
*I *1406:Q O *D sky130_fd_sc_hd__dfrtp_1
*CAP
1 *1335:A1 9.62835e-06
2 *1263:A1 0.000175695
3 *1406:Q 0.000234856
4 *225:12 0.000420179
5 *1260:A2 *1263:A1 0.00018077
6 *1260:A2 *1335:A1 4.27935e-05
7 *1263:B1 *1263:A1 0.000148065
8 *1336:A0 *225:12 9.7659e-05
9 *106:47 *1263:A1 0
10 *171:36 *1263:A1 4.61529e-05
11 *171:38 *225:12 3.25078e-05
12 *171:40 *225:12 7.6021e-05
13 *179:16 *1263:A1 9.71197e-05
14 *179:16 *1335:A1 5.52302e-05
15 *179:18 *225:12 8.5896e-05
16 *179:20 *225:12 3.40128e-05
17 *189:53 *225:12 0.000130741
18 *207:51 *1263:A1 0.000189564
*RES
1 *1406:Q *225:12 24.5679 
2 *225:12 *1263:A1 22.8937 
3 *225:12 *1335:A1 9.83571 
*END

*D_NET *226 0.0023864
*CONN
*I *1271:B2 I *D sky130_fd_sc_hd__a22o_1
*I *1336:A1 I *D sky130_fd_sc_hd__mux2_1
*I *1407:Q O *D sky130_fd_sc_hd__dfrtp_1
*CAP
1 *1271:B2 0.000414376
2 *1336:A1 0.000415597
3 *1407:Q 0.000100289
4 *226:8 0.000930262
5 *1260:A1 *1271:B2 7.07908e-05
6 *1260:A2 *1271:B2 0
7 *1271:A1 *1271:B2 0
8 *1274:C1 *1271:B2 0
9 *1330:A0 *226:8 5.41494e-05
10 *1330:A1 *1271:B2 0.000196276
11 *1330:A1 *1336:A1 3.34295e-05
12 *1336:A0 *1336:A1 0
13 *1336:S *1271:B2 0
14 *1336:S *1336:A1 0
15 *1403:CLK *1271:B2 3.17163e-05
16 *1403:D *1271:B2 0.000102545
17 *104:12 *1271:B2 0
18 *189:53 *1271:B2 3.69697e-05
19 *189:69 *1271:B2 0
*RES
1 *1407:Q *226:8 15.1571 
2 *226:8 *1336:A1 21.0857 
3 *226:8 *1271:B2 23.0321 
*END

*D_NET *227 0.00242864
*CONN
*I *1338:A1 I *D sky130_fd_sc_hd__mux2_1
*I *1234:A1 I *D sky130_fd_sc_hd__a22o_1
*I *1408:Q O *D sky130_fd_sc_hd__dfrtp_1
*CAP
1 *1338:A1 0.00013557
2 *1234:A1 0.000797861
3 *1408:Q 4.37556e-05
4 *227:6 0.000977187
5 *1234:B2 *1234:A1 2.89114e-05
6 *1408:CLK *1234:A1 4.51495e-05
7 *1422:A *1234:A1 3.80833e-05
8 *1466:A *1338:A1 0
9 *175:29 *1234:A1 0.000104534
10 *186:38 *1338:A1 0.000246057
11 *213:6 *1234:A1 7.07155e-06
12 *213:6 *227:6 4.46231e-06
*RES
1 *1408:Q *227:6 9.83571 
2 *227:6 *1234:A1 18.8893 
3 *227:6 *1338:A1 21.4607 
*END

*D_NET *228 0.00231593
*CONN
*I *1249:B2 I *D sky130_fd_sc_hd__a22o_1
*I *1339:A1 I *D sky130_fd_sc_hd__mux2_1
*I *1409:Q O *D sky130_fd_sc_hd__dfrtp_1
*CAP
1 *1249:B2 0.000107995
2 *1339:A1 0.000133277
3 *1409:Q 0.000340079
4 *228:8 0.000581351
5 *1339:S *1339:A1 9.60939e-05
6 *1365:RESET_B *1249:B2 0.000185323
7 *1409:D *1339:A1 4.57445e-05
8 *1409:RESET_B *1249:B2 6.07232e-05
9 *1409:RESET_B *1339:A1 1.76135e-05
10 *1452:A *1339:A1 9.80173e-05
11 *1452:A *228:8 5.70797e-05
12 *175:42 *1249:B2 0.000196269
13 *175:42 *1339:A1 0.000248486
14 *175:193 *1249:B2 0.000143797
15 *212:33 *1339:A1 4.08555e-06
*RES
1 *1409:Q *228:8 17.6214 
2 *228:8 *1339:A1 17.9071 
3 *228:8 *1249:B2 18.175 
*END

*D_NET *229 0.00200153
*CONN
*I *1340:A1 I *D sky130_fd_sc_hd__mux2_1
*I *1262:B2 I *D sky130_fd_sc_hd__a221o_1
*I *1410:Q O *D sky130_fd_sc_hd__dfrtp_1
*CAP
1 *1340:A1 0.000260419
2 *1262:B2 0.000234599
3 *1410:Q 0.000176514
4 *229:10 0.000671532
5 *1241:C1 *1340:A1 0.000183039
6 *1271:B1 *1262:B2 0.000310558
7 *1274:C1 *1262:B2 0
8 *1274:C1 *229:10 0
9 *1340:A0 *1340:A1 3.18676e-05
10 *1422:A *229:10 5.52302e-05
11 *104:12 *1262:B2 0
12 *104:12 *229:10 0
13 *104:29 *1262:B2 7.77751e-05
*RES
1 *1410:Q *229:10 16.5857 
2 *229:10 *1262:B2 19.0009 
3 *229:10 *1340:A1 18.8536 
*END

*D_NET *230 0.00151398
*CONN
*I *1274:A1 I *D sky130_fd_sc_hd__a2111o_1
*I *1341:A1 I *D sky130_fd_sc_hd__mux2_1
*I *1411:Q O *D sky130_fd_sc_hd__dfrtp_1
*CAP
1 *1274:A1 0.000178427
2 *1341:A1 7.57207e-05
3 *1411:Q 0.000241588
4 *230:8 0.000495735
5 *103:35 *230:8 0.000196968
6 *118:12 *1274:A1 0
7 *118:12 *1341:A1 0
8 *156:29 *1341:A1 1.02504e-05
9 *171:125 *1274:A1 0.000189448
10 *171:125 *1341:A1 8.46507e-05
11 *190:40 *1274:A1 3.67257e-05
12 *207:78 *1341:A1 4.46186e-06
*RES
1 *1411:Q *230:8 17.2107 
2 *230:8 *1341:A1 15.4429 
3 *230:8 *1274:A1 17.3 
*END

*D_NET *231 0.00185508
*CONN
*I *1343:A1 I *D sky130_fd_sc_hd__mux2_1
*I *1237:A1 I *D sky130_fd_sc_hd__a22o_1
*I *1412:Q O *D sky130_fd_sc_hd__dfrtp_1
*CAP
1 *1343:A1 0.000114435
2 *1237:A1 0.000429051
3 *1412:Q 3.72435e-05
4 *231:6 0.00058073
5 *1237:A1 *1237:B2 6.04256e-05
6 *1237:A1 *1323:A1 3.93893e-05
7 *1240:B2 *1237:A1 0
8 *1404:RESET_B *1343:A1 0.00010326
9 *177:34 *1237:A1 5.33005e-05
10 *177:34 *231:6 4.27935e-05
11 *177:36 *1343:A1 7.90803e-05
12 *177:62 *1343:A1 3.17148e-05
13 *187:70 *1237:A1 0.000160365
14 *187:78 *1343:A1 0
15 *223:12 *1237:A1 0.000123295
*RES
1 *1412:Q *231:6 9.83571 
2 *231:6 *1237:A1 25.4786 
3 *231:6 *1343:A1 20.8536 
*END

*D_NET *232 0.00318766
*CONN
*I *1248:B2 I *D sky130_fd_sc_hd__a22o_1
*I *1344:A1 I *D sky130_fd_sc_hd__mux2_1
*I *1413:Q O *D sky130_fd_sc_hd__dfrtp_1
*CAP
1 *1248:B2 0.000260978
2 *1344:A1 0.000201434
3 *1413:Q 0
4 *232:6 0.000462413
5 *1344:A1 *1260:B2 0.000181796
6 *1344:A0 *1344:A1 0.000309266
7 *86:37 *1248:B2 0.000356028
8 *106:60 *1344:A1 0.000110952
9 *160:29 *1248:B2 0.000171847
10 *160:29 *1344:A1 0.000101094
11 *189:21 *1248:B2 0.000357132
12 *189:27 *1248:B2 0.000148926
13 *189:27 *1344:A1 0.000290286
14 *206:24 *1248:B2 0.00010096
15 *206:28 *1248:B2 0.000134549
*RES
1 *1413:Q *232:6 13.8 
2 *232:6 *1344:A1 20.5679 
3 *232:6 *1248:B2 23.7107 
*END

*D_NET *233 0.00372164
*CONN
*I *1260:B2 I *D sky130_fd_sc_hd__a22o_1
*I *1345:A1 I *D sky130_fd_sc_hd__mux2_1
*I *1414:Q O *D sky130_fd_sc_hd__dfrtp_1
*CAP
1 *1260:B2 0.000230221
2 *1345:A1 0.000127977
3 *1414:Q 0.000657474
4 *233:8 0.00101567
5 *233:8 *234:10 5.52302e-05
6 *1344:A0 *1260:B2 6.87574e-05
7 *1344:A1 *1260:B2 0.000181796
8 *1407:CLK *1260:B2 0
9 *1407:CLK *1345:A1 0
10 *1414:D *1345:A1 0
11 *1414:RESET_B *233:8 6.09804e-05
12 *106:60 *1260:B2 0.000309266
13 *160:14 *1345:A1 7.38652e-05
14 *160:29 *1260:B2 0.000168939
15 *177:12 *233:8 0.000406265
16 *177:24 *1345:A1 5.41794e-05
17 *177:116 *1260:B2 0.000301771
18 *177:116 *1345:A1 9.25014e-06
*RES
1 *1414:Q *233:8 22.9607 
2 *233:8 *1345:A1 16.3536 
3 *233:8 *1260:B2 20.8714 
*END

*D_NET *234 0.00620597
*CONN
*I *1269:B2 I *D sky130_fd_sc_hd__a221o_1
*I *1346:A1 I *D sky130_fd_sc_hd__mux2_1
*I *1415:Q O *D sky130_fd_sc_hd__dfrtp_1
*CAP
1 *1269:B2 0.00118899
2 *1346:A1 0
3 *1415:Q 0.000166954
4 *234:10 0.00135594
5 *1269:B2 *1213:A1 0
6 *1269:B2 *1227:A1 0
7 *1269:B2 *1296:A1 0.00032515
8 *1212:A *1269:B2 0.000196269
9 *1233:B_N *1269:B2 3.19423e-05
10 *1269:C1 *1269:B2 4.57094e-05
11 *1296:A0 *1269:B2 0.000158999
12 *1353:RESET_B *1269:B2 0.000132102
13 *1413:D *1269:B2 0
14 *1414:CLK *234:10 1.15172e-05
15 *1415:RESET_B *234:10 9.41642e-05
16 *86:25 *1269:B2 0.000272135
17 *86:27 *1269:B2 0.000328394
18 *86:37 *1269:B2 0.000245335
19 *157:10 *1269:B2 0.000195555
20 *157:10 *234:10 2.48938e-05
21 *157:14 *234:10 0.000150618
22 *160:29 *1269:B2 0
23 *177:12 *234:10 9.60939e-05
24 *177:34 *234:10 0.000135028
25 *177:116 *1269:B2 7.67315e-05
26 *199:19 *1269:B2 0.000147132
27 *199:27 *1269:B2 0.000331797
28 *206:34 *1269:B2 0.000439285
29 *233:8 *234:10 5.52302e-05
*RES
1 *1415:Q *234:10 18.2286 
2 *234:10 *1346:A1 13.8 
3 *234:10 *1269:B2 44.858 
*END

*D_NET *235 0.00170327
*CONN
*I *1240:A1 I *D sky130_fd_sc_hd__a221o_1
*I *1348:A1 I *D sky130_fd_sc_hd__mux2_1
*I *1416:Q O *D sky130_fd_sc_hd__dfrtp_1
*CAP
1 *1240:A1 0.000293271
2 *1348:A1 0.00033146
3 *1416:Q 0
4 *235:4 0.00062473
5 *1240:A2 *1240:A1 1.24368e-05
6 *1240:B1 *1240:A1 2.84593e-05
7 *1240:B2 *1240:A1 6.26774e-06
8 *1261:A2 *1348:A1 5.52238e-05
9 *107:30 *1348:A1 0
10 *177:76 *1240:A1 1.78951e-05
11 *206:44 *1348:A1 0.000333525
*RES
1 *1416:Q *235:4 9.3 
2 *235:4 *1348:A1 23.1571 
3 *235:4 *1240:A1 13.2286 
*END

*D_NET *236 0.00151435
*CONN
*I *1246:B2 I *D sky130_fd_sc_hd__a22o_1
*I *1349:A1 I *D sky130_fd_sc_hd__mux2_1
*I *1417:Q O *D sky130_fd_sc_hd__dfrtp_1
*CAP
1 *1246:B2 0.000183216
2 *1349:A1 0.000249675
3 *1417:Q 6.59684e-05
4 *236:8 0.000498859
5 *1349:S *1349:A1 3.34366e-05
6 *1380:CLK *1246:B2 0
7 *1380:CLK *1349:A1 0
8 *173:33 *1246:B2 1.9643e-05
9 *173:33 *1349:A1 8.77022e-05
10 *173:46 *1246:B2 0.000276809
11 *178:49 *236:8 9.90367e-05
12 *188:47 *1349:A1 0
13 *188:67 *1349:A1 0
*RES
1 *1417:Q *236:8 14.7464 
2 *236:8 *1349:A1 18.6214 
3 *236:8 *1246:B2 18.175 
*END

*D_NET *237 0.000916089
*CONN
*I *1261:B2 I *D sky130_fd_sc_hd__a22o_1
*I *1350:A1 I *D sky130_fd_sc_hd__mux2_1
*I *1418:Q O *D sky130_fd_sc_hd__dfrtp_1
*CAP
1 *1261:B2 4.67847e-05
2 *1350:A1 0.000122195
3 *1418:Q 2.23854e-05
4 *237:6 0.000191365
5 *1350:S *1350:A1 6.42242e-05
6 *1418:RESET_B *1261:B2 0.000261858
7 *1418:RESET_B *1350:A1 9.71197e-05
8 *158:8 *1261:B2 0.000106467
9 *158:8 *1350:A1 3.69047e-06
*RES
1 *1418:Q *237:6 9.72857 
2 *237:6 *1350:A1 20.8893 
3 *237:6 *1261:B2 11.8893 
*END

*D_NET *238 0.00197728
*CONN
*I *1272:B2 I *D sky130_fd_sc_hd__a22o_1
*I *1351:A1 I *D sky130_fd_sc_hd__mux2_1
*I *1419:Q O *D sky130_fd_sc_hd__dfrtp_1
*CAP
1 *1272:B2 0.000320933
2 *1351:A1 0
3 *1419:Q 0.000186005
4 *238:6 0.000506938
5 *1272:B2 *1326:A1 3.5848e-05
6 *1303:A0 *1272:B2 8.06419e-05
7 *1326:A0 *238:6 0.000225385
8 *107:18 *1272:B2 2.59355e-05
9 *109:29 *1272:B2 0.000495607
10 *207:18 *1272:B2 4.33899e-05
11 *207:18 *238:6 5.65955e-05
*RES
1 *1419:Q *238:6 11.8893 
2 *238:6 *1351:A1 9.3 
3 *238:6 *1272:B2 25.8714 
*END

*D_NET *239 0.00220232
*CONN
*I *1227:A1 I *D sky130_fd_sc_hd__a221o_1
*I *1213:A1 I *D sky130_fd_sc_hd__mux2_1
*I *1352:Q O *D sky130_fd_sc_hd__dfrtp_1
*CAP
1 *1227:A1 0.000353073
2 *1213:A1 0.000267158
3 *1352:Q 7.98368e-05
4 *239:8 0.000700068
5 *1235:B *1227:A1 0
6 *1269:B2 *1213:A1 0
7 *1269:B2 *1227:A1 0
8 *1352:RESET_B *239:8 0.000137874
9 *1445:A *1227:A1 0.000216441
10 *95:33 *1227:A1 0.00019271
11 *106:12 *1227:A1 2.79092e-05
12 *110:10 *1213:A1 0
13 *110:10 *1227:A1 0
14 *140:12 *239:8 0.000196968
15 *178:20 *1213:A1 3.0285e-05
16 *197:105 *1227:A1 0
17 *199:27 *1227:A1 0
*RES
1 *1352:Q *239:8 17.2107 
2 *239:8 *1213:A1 17.5143 
3 *239:8 *1227:A1 21.2107 
*END

*D_NET *240 0.00108402
*CONN
*I *1248:A1 I *D sky130_fd_sc_hd__a22o_1
*I *1214:A1 I *D sky130_fd_sc_hd__mux2_1
*I *1353:Q O *D sky130_fd_sc_hd__dfrtp_1
*CAP
1 *1248:A1 0.000236729
2 *1214:A1 0
3 *1353:Q 8.09416e-05
4 *240:12 0.000317671
5 *1214:A0 *240:12 7.83659e-05
6 *1215:S *240:12 7.6644e-05
7 *86:37 *1248:A1 0.000274575
8 *118:12 *1248:A1 1.3701e-05
9 *173:12 *240:12 5.39166e-06
*RES
1 *1353:Q *240:12 19.8714 
2 *240:12 *1214:A1 9.3 
3 *240:12 *1248:A1 12.7286 
*END

*D_NET *241 0.00204902
*CONN
*I *1215:A1 I *D sky130_fd_sc_hd__mux2_1
*I *1262:A1 I *D sky130_fd_sc_hd__a221o_1
*I *1354:Q O *D sky130_fd_sc_hd__dfrtp_1
*CAP
1 *1215:A1 5.72442e-05
2 *1262:A1 0.000157154
3 *1354:Q 0.000286038
4 *241:8 0.000500436
5 *1241:C1 *241:8 0.000227532
6 *1262:A2 *1215:A1 0.000148196
7 *1262:A2 *1262:A1 0.000245168
8 *1271:B1 *1262:A1 0.000135028
9 *111:26 *241:8 8.56752e-05
10 *132:26 *1262:A1 4.28249e-05
11 *179:49 *1262:A1 3.81765e-05
12 *179:56 *1215:A1 7.15687e-05
13 *179:56 *1262:A1 5.39795e-05
*RES
1 *1354:Q *241:8 17.6214 
2 *241:8 *1262:A1 18.0143 
3 *241:8 *1215:A1 15.7464 
*END

*D_NET *242 0.00145769
*CONN
*I *1273:A1 I *D sky130_fd_sc_hd__a221o_1
*I *1216:A1 I *D sky130_fd_sc_hd__mux2_1
*I *1355:Q O *D sky130_fd_sc_hd__dfrtp_1
*CAP
1 *1273:A1 0.000128958
2 *1216:A1 0.000191463
3 *1355:Q 0.00014876
4 *242:10 0.00046918
5 *1273:A1 *274:12 7.2754e-05
6 *1216:A0 *1216:A1 9.90367e-05
7 *103:8 *1273:A1 0.0001315
8 *103:8 *242:10 5.10822e-05
9 *207:51 *242:10 0
10 *207:64 *1216:A1 0.000164951
*RES
1 *1355:Q *242:10 16.0857 
2 *242:10 *1216:A1 17.6214 
3 *242:10 *1273:A1 16.9607 
*END

*D_NET *243 0.002164
*CONN
*I *1283:A1 I *D sky130_fd_sc_hd__mux2_1
*I *1219:B2 I *D sky130_fd_sc_hd__a22o_1
*I *1364:Q O *D sky130_fd_sc_hd__dfrtp_1
*CAP
1 *1283:A1 0
2 *1219:B2 0.000371521
3 *1364:Q 0.000245442
4 *243:12 0.000616962
5 *1356:CLK *1219:B2 5.26091e-05
6 *1433:A *243:12 5.04705e-05
7 *144:29 *1219:B2 0.000152333
8 *185:8 *243:12 9.60939e-05
9 *185:25 *1219:B2 0.000312209
10 *185:25 *243:12 0.000140933
11 *186:66 *243:12 0
12 *186:76 *1219:B2 0.000113298
13 *186:76 *243:12 1.21258e-05
*RES
1 *1364:Q *243:12 23.05 
2 *243:12 *1219:B2 26.1214 
3 *243:12 *1283:A1 9.3 
*END

*D_NET *244 0.00167854
*CONN
*I *1284:A1 I *D sky130_fd_sc_hd__mux2_1
*I *1249:A1 I *D sky130_fd_sc_hd__a22o_1
*I *1365:Q O *D sky130_fd_sc_hd__dfrtp_1
*CAP
1 *1284:A1 0.000191521
2 *1249:A1 0.000473203
3 *1365:Q 6.07255e-05
4 *244:8 0.000725449
5 *1249:B1 *1249:A1 2.89114e-05
6 *1284:S *1284:A1 4.22908e-05
7 *186:49 *1249:A1 0.000107503
8 *186:49 *244:8 4.8936e-05
*RES
1 *1365:Q *244:8 15.1393 
2 *244:8 *1249:A1 21.4071 
3 *244:8 *1284:A1 16.8179 
*END

*D_NET *245 0.0019252
*CONN
*I *1285:A1 I *D sky130_fd_sc_hd__mux2_1
*I *1257:A1 I *D sky130_fd_sc_hd__a221o_1
*I *1366:Q O *D sky130_fd_sc_hd__dfrtp_1
*CAP
1 *1285:A1 0.000563933
2 *1257:A1 0.000110587
3 *1366:Q 0
4 *245:4 0.00067452
5 *1257:A2 *1257:A1 0.000163737
6 *1257:A2 *1285:A1 9.88425e-05
7 *1280:A1 *1285:A1 3.69047e-06
8 *1290:A0 *1257:A1 9.90367e-05
9 *1366:D *1285:A1 7.6644e-05
10 *169:33 *1285:A1 3.51062e-05
11 *205:35 *1285:A1 9.91086e-05
*RES
1 *1366:Q *245:4 9.3 
2 *245:4 *1257:A1 11.9071 
3 *245:4 *1285:A1 25.925 
*END

*D_NET *246 0.00183232
*CONN
*I *1270:B2 I *D sky130_fd_sc_hd__a221o_1
*I *1286:A1 I *D sky130_fd_sc_hd__mux2_1
*I *1367:Q O *D sky130_fd_sc_hd__dfrtp_1
*CAP
1 *1270:B2 0.000100566
2 *1286:A1 8.7389e-05
3 *1367:Q 0.000313853
4 *246:8 0.000501808
5 *1241:D1 *1270:B2 6.26774e-06
6 *1249:A2 *1270:B2 0.000128875
7 *1249:A2 *1286:A1 0.00017039
8 *1270:B1 *1270:B2 9.40095e-05
9 *1320:S *1270:B2 7.26935e-05
10 *1321:S *1270:B2 1.78353e-05
11 *1321:S *1286:A1 5.85801e-05
12 *102:29 *1286:A1 1.40306e-05
13 *142:10 *1270:B2 1.17968e-05
14 *152:29 *246:8 0.000197078
15 *207:132 *1286:A1 5.71472e-05
*RES
1 *1367:Q *246:8 17.6214 
2 *246:8 *1286:A1 16.5857 
3 *246:8 *1270:B2 17.0902 
*END

*D_NET *247 0.000950242
*CONN
*I *1223:B2 I *D sky130_fd_sc_hd__a22o_1
*I *1288:A1 I *D sky130_fd_sc_hd__mux2_1
*I *1368:Q O *D sky130_fd_sc_hd__dfrtp_1
*CAP
1 *1223:B2 0
2 *1288:A1 3.77147e-05
3 *1368:Q 0.000187487
4 *247:12 0.000225202
5 *247:12 *1223:A1 4.71964e-05
6 *1275:B1 *1288:A1 1.54142e-05
7 *1288:S *1288:A1 5.71472e-05
8 *1298:A0 *247:12 0
9 *168:25 *1288:A1 0.000229456
10 *204:80 *1288:A1 0.000140933
11 *204:80 *247:12 9.69119e-06
*RES
1 *1368:Q *247:12 21.1929 
2 *247:12 *1288:A1 11.4786 
3 *247:12 *1223:B2 9.3 
*END

*D_NET *248 0.00199514
*CONN
*I *1289:A1 I *D sky130_fd_sc_hd__mux2_1
*I *1245:A1 I *D sky130_fd_sc_hd__a22o_1
*I *1369:Q O *D sky130_fd_sc_hd__dfrtp_1
*CAP
1 *1289:A1 0.000209941
2 *1245:A1 0.000192738
3 *1369:Q 0.000148248
4 *248:8 0.000550928
5 *1245:A1 *1245:B2 5.52238e-05
6 *1245:B1 *1245:A1 4.60235e-05
7 *1289:A0 *1245:A1 0
8 *1289:A0 *1289:A1 0
9 *1289:S *1289:A1 1.92789e-05
10 *1293:A0 *1245:A1 6.05161e-06
11 *1305:S *1289:A1 2.343e-05
12 *1384:CLK *248:8 2.976e-05
13 *1384:D *248:8 6.05161e-06
14 *147:12 *1245:A1 9.76435e-06
15 *173:101 *1245:A1 0.00019886
16 *182:57 *248:8 1.15813e-05
17 *191:53 *1245:A1 0
18 *191:53 *1289:A1 0
19 *214:37 *1245:A1 0.000290986
20 *214:37 *1289:A1 0.000196269
*RES
1 *1369:Q *248:8 15.5679 
2 *248:8 *1245:A1 19.3357 
3 *248:8 *1289:A1 17.7107 
*END

*D_NET *249 0.000663999
*CONN
*I *1257:B2 I *D sky130_fd_sc_hd__a221o_1
*I *1290:A1 I *D sky130_fd_sc_hd__mux2_1
*I *1370:Q O *D sky130_fd_sc_hd__dfrtp_1
*CAP
1 *1257:B2 4.79784e-05
2 *1290:A1 3.42383e-05
3 *1370:Q 7.46015e-05
4 *249:10 0.000156818
5 *1257:C1 *1257:B2 2.97137e-05
6 *1257:C1 *1290:A1 3.14078e-05
7 *1290:A0 *1257:B2 8.68719e-05
8 *1290:A0 *1290:A1 0.000140933
9 *1290:A0 *249:10 0
10 *1290:S *1290:A1 2.89114e-05
11 *186:91 *249:10 3.25247e-05
*RES
1 *1370:Q *249:10 19.6393 
2 *249:10 *1290:A1 10.6571 
3 *249:10 *1257:B2 10.8045 
*END

*D_NET *250 0.00237533
*CONN
*I *1291:A1 I *D sky130_fd_sc_hd__mux2_1
*I *1267:A1 I *D sky130_fd_sc_hd__a22o_1
*I *1371:Q O *D sky130_fd_sc_hd__dfrtp_1
*CAP
1 *1291:A1 0.000365436
2 *1267:A1 4.17325e-05
3 *1371:Q 0.000353354
4 *250:10 0.000760522
5 *1291:A0 *1291:A1 5.33005e-05
6 *1307:A *1267:A1 0.000103253
7 *1307:A *250:10 5.59013e-05
8 *1386:CLK *1267:A1 3.56976e-05
9 *1386:CLK *250:10 6.44542e-05
10 *1387:D *250:10 0
11 *150:14 *250:10 0
12 *193:43 *250:10 1.84657e-05
13 *193:62 *250:10 5.06983e-05
14 *208:68 *1291:A1 0.000472512
*RES
1 *1371:Q *250:10 19.3536 
2 *250:10 *1267:A1 15.1393 
3 *250:10 *1291:A1 18.8536 
*END

*D_NET *251 0.00238645
*CONN
*I *1230:A1 I *D sky130_fd_sc_hd__a221o_1
*I *1293:A1 I *D sky130_fd_sc_hd__mux2_1
*I *1372:Q O *D sky130_fd_sc_hd__dfrtp_1
*CAP
1 *1230:A1 0.000286072
2 *1293:A1 0.000128469
3 *1372:Q 0
4 *251:4 0.000414541
5 *1230:A1 *1230:B2 1.28809e-05
6 *1222:C *1230:A1 0.0001399
7 *1230:B1 *1230:A1 5.33005e-05
8 *1245:B1 *1230:A1 0.000184521
9 *1245:B1 *1293:A1 2.16394e-05
10 *1372:RESET_B *1293:A1 0
11 *99:23 *1230:A1 0.000253473
12 *99:40 *1230:A1 0.00055586
13 *197:40 *1230:A1 5.13373e-05
14 *197:40 *1293:A1 2.343e-05
15 *197:49 *1230:A1 7.45527e-05
16 *197:74 *1230:A1 0.000125225
17 *200:50 *1230:A1 6.12434e-05
*RES
1 *1372:Q *251:4 9.3 
2 *251:4 *1293:A1 20.2821 
3 *251:4 *1230:A1 19.7107 
*END

*D_NET *252 0.00106333
*CONN
*I *1245:B2 I *D sky130_fd_sc_hd__a22o_1
*I *1294:A1 I *D sky130_fd_sc_hd__mux2_1
*I *1373:Q O *D sky130_fd_sc_hd__dfrtp_1
*CAP
1 *1245:B2 0.000152541
2 *1294:A1 0
3 *1373:Q 0.000199283
4 *252:6 0.000351825
5 *1245:A1 *1245:B2 5.52238e-05
6 *1245:B1 *1245:B2 5.33005e-05
7 *1294:S *1245:B2 2.84026e-05
8 *147:12 *1245:B2 1.98839e-05
9 *173:63 *252:6 2.59355e-05
10 *173:78 *252:6 0.000100171
11 *173:101 *1245:B2 4.83648e-05
12 *173:101 *252:6 2.84026e-05
*RES
1 *1373:Q *252:6 11.8893 
2 *252:6 *1294:A1 9.3 
3 *252:6 *1245:B2 12.3357 
*END

*D_NET *253 0.000942661
*CONN
*I *1258:A1 I *D sky130_fd_sc_hd__a221o_1
*I *1295:A1 I *D sky130_fd_sc_hd__mux2_1
*I *1374:Q O *D sky130_fd_sc_hd__dfrtp_1
*CAP
1 *1258:A1 5.96172e-05
2 *1295:A1 3.34103e-05
3 *1374:Q 3.40107e-05
4 *253:10 0.000127038
5 *1258:A2 *1258:A1 0.00012095
6 *1258:A2 *253:10 1.17968e-05
7 *1258:C1 *1258:A1 0.000227532
8 *1258:C1 *253:10 8.00806e-05
9 *1295:A0 *1258:A1 5.52302e-05
10 *1295:A0 *1295:A1 5.33005e-05
11 *1316:A0 *1258:A1 3.64349e-05
12 *186:91 *253:10 0.00010326
*RES
1 *1374:Q *253:10 19.6393 
2 *253:10 *1295:A1 9.83571 
3 *253:10 *1258:A1 11.8893 
*END

*D_NET *254 0.0019363
*CONN
*I *1269:A1 I *D sky130_fd_sc_hd__a221o_1
*I *1296:A1 I *D sky130_fd_sc_hd__mux2_1
*I *1375:Q O *D sky130_fd_sc_hd__dfrtp_1
*CAP
1 *1269:A1 0
2 *1296:A1 0.00034969
3 *1375:Q 0.000155695
4 *254:12 0.000505385
5 *1269:B1 *1296:A1 5.33005e-05
6 *1269:B2 *1296:A1 0.00032515
7 *1269:C1 *1296:A1 1.00926e-05
8 *1427:A *254:12 0.000175512
9 *101:24 *1296:A1 4.46231e-06
10 *101:24 *254:12 5.33005e-05
11 *167:10 *254:12 3.34295e-05
12 *167:31 *254:12 0.000148911
13 *182:10 *254:12 9.71197e-05
14 *209:106 *254:12 2.42516e-05
*RES
1 *1375:Q *254:12 22.3179 
2 *254:12 *1296:A1 14.2643 
3 *254:12 *1269:A1 9.3 
*END

*D_NET *255 0.00162627
*CONN
*I *1223:A1 I *D sky130_fd_sc_hd__a22o_1
*I *1298:A1 I *D sky130_fd_sc_hd__mux2_1
*I *1376:Q O *D sky130_fd_sc_hd__dfrtp_1
*CAP
1 *1223:A1 0.000417345
2 *1298:A1 7.54622e-05
3 *1376:Q 0.000231208
4 *255:16 0.000724015
5 *1223:A2 *1223:A1 0
6 *1266:B1 *1223:A1 0
7 *1298:A0 *1223:A1 0
8 *1298:S *1298:A1 2.27416e-05
9 *1358:D *1223:A1 1.57885e-05
10 *1358:D *255:16 3.72901e-05
11 *148:32 *255:16 0
12 *195:12 *255:16 0
13 *195:25 *255:16 5.52238e-05
14 *247:12 *1223:A1 4.71964e-05
*RES
1 *1376:Q *255:16 22.05 
2 *255:16 *1298:A1 10.2464 
3 *255:16 *1223:A1 24.8536 
*END

*D_NET *256 0.00249284
*CONN
*I *1299:A1 I *D sky130_fd_sc_hd__mux2_1
*I *1251:A1 I *D sky130_fd_sc_hd__a221o_1
*I *1377:Q O *D sky130_fd_sc_hd__dfrtp_1
*CAP
1 *1299:A1 0
2 *1251:A1 0.000345834
3 *1377:Q 0.000304573
4 *256:12 0.000650406
5 *1299:A0 *1251:A1 7.3237e-05
6 *1377:RESET_B *256:12 4.96155e-05
7 *95:42 *1251:A1 0.000345152
8 *95:42 *256:12 3.92854e-05
9 *100:27 *1251:A1 1.02504e-05
10 *100:42 *1251:A1 0.000651575
11 *176:28 *1251:A1 1.32552e-05
12 *182:106 *256:12 9.66073e-06
*RES
1 *1377:Q *256:12 22.3357 
2 *256:12 *1251:A1 28.3893 
3 *256:12 *1299:A1 9.3 
*END

*D_NET *257 0.0010093
*CONN
*I *1259:B2 I *D sky130_fd_sc_hd__a221o_1
*I *1300:A1 I *D sky130_fd_sc_hd__mux2_1
*I *1378:Q O *D sky130_fd_sc_hd__dfrtp_1
*CAP
1 *1259:B2 3.68686e-05
2 *1300:A1 0.000171409
3 *1378:Q 0.000165842
4 *257:14 0.000374119
5 *257:14 *1259:A1 5.71472e-05
6 *1264:B *257:14 3.92854e-05
7 *1300:S *1300:A1 3.18676e-05
8 *92:36 *257:14 3.92854e-05
9 *172:67 *1259:B2 8.60433e-06
10 *172:67 *1300:A1 7.67939e-05
11 *172:67 *257:14 8.0786e-06
*RES
1 *1378:Q *257:14 21.1214 
2 *257:14 *1300:A1 12.7107 
3 *257:14 *1259:B2 10.0143 
*END

*D_NET *258 0.00189532
*CONN
*I *1301:A1 I *D sky130_fd_sc_hd__mux2_1
*I *1268:A1 I *D sky130_fd_sc_hd__a221o_1
*I *1379:Q O *D sky130_fd_sc_hd__dfrtp_1
*CAP
1 *1301:A1 0.000152389
2 *1268:A1 0.000337677
3 *1379:Q 0.000125013
4 *258:8 0.000615079
5 *1268:A1 *1311:A1 1.69569e-05
6 *1268:A1 *266:14 0
7 *1268:A2 *1268:A1 5.53689e-05
8 *1301:A0 *1268:A1 0
9 *1301:A0 *1301:A1 0.00014285
10 *1301:S *1268:A1 5.83304e-05
11 *1301:S *1301:A1 0.000119618
12 *1301:S *258:8 0.000102207
13 *1368:CLK *1268:A1 5.16759e-05
14 *1379:RESET_B *1268:A1 0
15 *146:44 *1268:A1 9.20022e-05
16 *183:61 *1268:A1 0
17 *208:62 *1268:A1 2.61528e-05
*RES
1 *1379:Q *258:8 15.5679 
2 *258:8 *1268:A1 20.8893 
3 *258:8 *1301:A1 17.1036 
*END

*D_NET *259 0.00299844
*CONN
*I *1303:A1 I *D sky130_fd_sc_hd__mux2_1
*I *1227:B2 I *D sky130_fd_sc_hd__a221o_1
*I *1380:Q O *D sky130_fd_sc_hd__dfrtp_1
*CAP
1 *1303:A1 0.000369681
2 *1227:B2 0.000453053
3 *1380:Q 4.34541e-05
4 *259:8 0.000866188
5 *1224:D *1227:B2 0.000265447
6 *1227:A2 *1227:B2 7.66879e-05
7 *1230:C1 *1303:A1 0
8 *1239:C *259:8 9.25014e-06
9 *1303:A0 *1303:A1 0.000140815
10 *1445:A *1303:A1 0.000128409
11 *96:8 *1227:B2 5.7661e-06
12 *197:78 *1303:A1 0
13 *200:87 *1227:B2 0.00018077
14 *200:87 *1303:A1 0
15 *200:87 *259:8 0
16 *201:82 *259:8 0
17 *209:37 *1303:A1 3.15645e-05
18 *209:37 *259:8 1.91512e-05
19 *209:82 *1227:B2 0.000318107
20 *209:98 *1227:B2 9.00935e-05
*RES
1 *1380:Q *259:8 14.5321 
2 *259:8 *1227:B2 23.2643 
3 *259:8 *1303:A1 18.9607 
*END

*D_NET *260 0.00376657
*CONN
*I *1247:A1 I *D sky130_fd_sc_hd__a221o_1
*I *1304:A1 I *D sky130_fd_sc_hd__mux2_1
*I *1381:Q O *D sky130_fd_sc_hd__dfrtp_1
*CAP
1 *1247:A1 0.00073947
2 *1304:A1 2.28676e-05
3 *1381:Q 8.13107e-05
4 *260:10 0.000843648
5 *1236:A_N *1247:A1 1.15172e-05
6 *1236:C *1247:A1 4.64488e-06
7 *1236:D *1247:A1 2.14658e-05
8 *1238:B *260:10 4.09856e-05
9 *1238:C *1247:A1 0.000211249
10 *1238:C *1304:A1 0.00010096
11 *1239:B *1247:A1 0.000117563
12 *1247:A2 *1247:A1 1.97695e-05
13 *1247:B1 *1247:A1 2.59355e-05
14 *1247:B2 *1247:A1 1.28809e-05
15 *1304:S *1247:A1 0.000519487
16 *1304:S *1304:A1 5.52238e-05
17 *1381:RESET_B *260:10 0
18 *1447:A *1247:A1 0.000103258
19 *95:18 *1247:A1 9.60875e-05
20 *107:10 *1247:A1 8.62038e-05
21 *110:6 *1247:A1 6.69495e-05
22 *173:63 *260:10 7.30018e-05
23 *197:95 *1247:A1 6.13217e-05
24 *200:40 *1247:A1 0.000127501
25 *200:72 *1247:A1 0.000146533
26 *200:87 *1247:A1 0.000170955
27 *214:37 *1247:A1 5.7836e-06
*RES
1 *1381:Q *260:10 20.2464 
2 *260:10 *1304:A1 10.2464 
3 *260:10 *1247:A1 37.0679 
*END

*D_NET *261 0.00386517
*CONN
*I *1256:A1 I *D sky130_fd_sc_hd__a22o_1
*I *1305:A1 I *D sky130_fd_sc_hd__mux2_1
*I *1382:Q O *D sky130_fd_sc_hd__dfrtp_1
*CAP
1 *1256:A1 0.00141935
2 *1305:A1 0.000238418
3 *1382:Q 0
4 *261:6 0.00165777
5 *1256:A1 *1256:B2 1.92905e-05
6 *1305:A0 *1305:A1 0.000188586
7 *1305:S *1305:A1 5.33334e-05
8 *1386:CLK *1256:A1 6.03879e-05
9 *1386:RESET_B *1256:A1 2.81497e-05
10 *1421:A *1256:A1 4.58194e-05
11 *100:42 *1256:A1 1.74352e-05
12 *100:50 *1256:A1 3.18676e-05
13 *172:10 *1256:A1 5.20751e-05
14 *172:10 *1305:A1 0
15 *183:12 *1256:A1 7.91064e-07
16 *183:16 *1256:A1 5.18883e-05
17 *196:16 *1256:A1 0
18 *196:16 *1305:A1 0
*RES
1 *1382:Q *261:6 13.8 
2 *261:6 *1305:A1 19.0321 
3 *261:6 *1256:A1 30.9964 
*END

*D_NET *262 0.000869901
*CONN
*I *1306:A1 I *D sky130_fd_sc_hd__mux2_1
*I *1267:B2 I *D sky130_fd_sc_hd__a22o_1
*I *1383:Q O *D sky130_fd_sc_hd__dfrtp_1
*CAP
1 *1306:A1 0
2 *1267:B2 0.000150598
3 *1383:Q 0.000204397
4 *262:6 0.000354995
5 *1306:A0 *262:6 0.000141734
6 *1383:D *262:6 1.21258e-05
7 *1383:RESET_B *262:6 6.05161e-06
*RES
1 *1383:Q *262:6 11.8893 
2 *262:6 *1267:B2 11.8 
3 *262:6 *1306:A1 9.3 
*END

*D_NET *263 0.00234644
*CONN
*I *1308:A1 I *D sky130_fd_sc_hd__mux2_1
*I *1230:B2 I *D sky130_fd_sc_hd__a221o_1
*I *1384:Q O *D sky130_fd_sc_hd__dfrtp_1
*CAP
1 *1308:A1 9.50759e-05
2 *1230:B2 0.000424716
3 *1384:Q 0.000119433
4 *263:6 0.000639226
5 *1230:B2 *264:8 0
6 *1222:C *1230:B2 0
7 *1230:A1 *1230:B2 1.28809e-05
8 *1230:C1 *1230:B2 1.02504e-05
9 *1247:C1 *1230:B2 0.000158406
10 *1293:A0 *1230:B2 0.000415476
11 *1309:S *1230:B2 0.000126591
12 *93:29 *1230:B2 0
13 *147:10 *1230:B2 0
14 *150:18 *1230:B2 2.1527e-05
15 *182:47 *1308:A1 0.000128496
16 *182:47 *263:6 0.000186662
17 *197:74 *1230:B2 7.70134e-06
*RES
1 *1384:Q *263:6 11.0679 
2 *263:6 *1230:B2 28.8759 
3 *263:6 *1308:A1 10.6571 
*END

*D_NET *264 0.00120399
*CONN
*I *1309:A1 I *D sky130_fd_sc_hd__mux2_1
*I *1251:B2 I *D sky130_fd_sc_hd__a221o_1
*I *1385:Q O *D sky130_fd_sc_hd__dfrtp_1
*CAP
1 *1309:A1 5.16392e-05
2 *1251:B2 0.000145279
3 *1385:Q 7.66844e-05
4 *264:8 0.000273603
5 *1230:B2 *264:8 0
6 *1247:C1 *1251:B2 0
7 *1251:A2 *1251:B2 0
8 *1299:A0 *1309:A1 1.32552e-05
9 *1299:A0 *264:8 7.83659e-05
10 *1309:S *1309:A1 4.22908e-05
11 *1309:S *264:8 9.10431e-06
12 *1375:CLK *1251:B2 0.000123288
13 *1375:CLK *264:8 5.83304e-05
14 *1449:A *1251:B2 4.5926e-05
15 *1456:A *1251:B2 0
16 *116:14 *1251:B2 1.33343e-05
17 *147:40 *1309:A1 0.000153273
18 *191:68 *264:8 0.000119618
*RES
1 *1385:Q *264:8 16.05 
2 *264:8 *1251:B2 16.9652 
3 *264:8 *1309:A1 15.5857 
*END

*D_NET *265 0.000371208
*CONN
*I *1256:B2 I *D sky130_fd_sc_hd__a22o_1
*I *1310:A1 I *D sky130_fd_sc_hd__mux2_1
*I *1386:Q O *D sky130_fd_sc_hd__dfrtp_1
*CAP
1 *1256:B2 4.45462e-05
2 *1310:A1 0.000112726
3 *1386:Q 0
4 *265:4 0.000157272
5 *1256:A1 *1256:B2 1.92905e-05
6 *1386:RESET_B *1256:B2 0
7 *100:42 *1256:B2 1.97695e-05
8 *100:42 *1310:A1 0
9 *100:50 *1310:A1 1.76039e-05
10 *150:14 *1310:A1 0
*RES
1 *1386:Q *265:4 9.3 
2 *265:4 *1310:A1 20.2464 
3 *265:4 *1256:B2 10.2643 
*END

*D_NET *266 0.00191723
*CONN
*I *1311:A1 I *D sky130_fd_sc_hd__mux2_1
*I *1268:B2 I *D sky130_fd_sc_hd__a221o_1
*I *1387:Q O *D sky130_fd_sc_hd__dfrtp_1
*CAP
1 *1311:A1 6.94995e-05
2 *1268:B2 0
3 *1387:Q 0.000466965
4 *266:14 0.000536465
5 *1268:A1 *1311:A1 1.69569e-05
6 *1268:A1 *266:14 0
7 *1268:B1 *1311:A1 3.18676e-05
8 *1268:B1 *266:14 3.04785e-05
9 *1268:C1 *1311:A1 0.000317082
10 *1368:CLK *266:14 5.33433e-05
11 *146:44 *1311:A1 0.000386794
12 *146:44 *266:14 7.78065e-06
13 *183:61 *266:14 0
*RES
1 *1387:Q *266:14 24.3536 
2 *266:14 *1268:B2 9.3 
3 *266:14 *1311:A1 13.3893 
*END

*D_NET *267 0.00178338
*CONN
*I *1219:A1 I *D sky130_fd_sc_hd__a22o_1
*I *1313:A1 I *D sky130_fd_sc_hd__mux2_1
*I *1388:Q O *D sky130_fd_sc_hd__dfrtp_1
*CAP
1 *1219:A1 6.17634e-05
2 *1313:A1 8.91581e-05
3 *1388:Q 0.000222813
4 *267:10 0.000373735
5 *1388:RESET_B *267:10 0.00013324
6 *112:12 *1219:A1 0.000185297
7 *112:12 *267:10 0.000147474
8 *176:12 *1313:A1 5.52302e-05
9 *176:20 *1313:A1 0.000137983
10 *194:43 *267:10 3.22258e-05
11 *204:20 *1219:A1 0.000197991
12 *204:20 *267:10 0.000146474
*RES
1 *1388:Q *267:10 17.925 
2 *267:10 *1313:A1 15.5679 
3 *267:10 *1219:A1 16.3536 
*END

*D_NET *268 0.00141881
*CONN
*I *1314:A1 I *D sky130_fd_sc_hd__mux2_1
*I *1250:A1 I *D sky130_fd_sc_hd__a221o_1
*I *1389:Q O *D sky130_fd_sc_hd__dfrtp_1
*CAP
1 *1314:A1 0
2 *1250:A1 0.000165566
3 *1389:Q 7.78773e-05
4 *268:10 0.000243444
5 *1250:A1 *1250:B2 6.05161e-06
6 *1250:A2 *1250:A1 2.04026e-05
7 *1252:D1 *1250:A1 0.000171375
8 *1253:A *1250:A1 1.21258e-05
9 *1253:C *1250:A1 5.33005e-05
10 *1254:A2 *1250:A1 0.000265447
11 *1277:B *1250:A1 9.25014e-06
12 *1277:B *268:10 0.00011891
13 *1314:S *1250:A1 1.02504e-05
14 *1314:S *268:10 0.000128146
15 *1393:CLK *1250:A1 8.33655e-05
16 *194:81 *268:10 5.33005e-05
*RES
1 *1389:Q *268:10 15.9786 
2 *268:10 *1250:A1 18.6393 
3 *268:10 *1314:A1 13.8 
*END

*D_NET *269 0.00195181
*CONN
*I *1315:A1 I *D sky130_fd_sc_hd__mux2_1
*I *1259:A1 I *D sky130_fd_sc_hd__a221o_1
*I *1390:Q O *D sky130_fd_sc_hd__dfrtp_1
*CAP
1 *1315:A1 0.000464212
2 *1259:A1 0.000142166
3 *1390:Q 0
4 *269:4 0.000606378
5 *1315:A0 *1315:A1 1.02504e-05
6 *1390:D *1315:A1 3.17774e-05
7 *1390:RESET_B *1315:A1 0.000134714
8 *88:12 *1259:A1 3.33238e-05
9 *88:27 *1259:A1 0.000163294
10 *97:35 *1259:A1 3.34672e-05
11 *172:67 *1259:A1 1.15172e-05
12 *184:89 *1259:A1 0.000103267
13 *194:19 *1315:A1 0.000160292
14 *205:35 *1315:A1 0
15 *257:14 *1259:A1 5.71472e-05
*RES
1 *1390:Q *269:4 9.3 
2 *269:4 *1259:A1 21.8179 
3 *269:4 *1315:A1 24.8 
*END

*D_NET *270 0.00227196
*CONN
*I *1316:A1 I *D sky130_fd_sc_hd__mux2_1
*I *1270:A1 I *D sky130_fd_sc_hd__a221o_1
*I *1391:Q O *D sky130_fd_sc_hd__dfrtp_1
*CAP
1 *1316:A1 0.000396093
2 *1270:A1 0.000378002
3 *1391:Q 0
4 *270:6 0.000774096
5 *1241:D1 *1270:A1 3.21613e-05
6 *1250:B1 *1270:A1 0
7 *1270:A2 *1270:A1 0.000227522
8 *1316:S *1316:A1 1.92789e-05
9 *1389:D *1270:A1 1.02504e-05
10 *1389:D *1316:A1 0.000127439
11 *118:12 *1270:A1 0
12 *171:125 *1270:A1 0.000163765
13 *171:125 *1316:A1 0.000135549
14 *207:132 *1270:A1 7.80714e-06
*RES
1 *1391:Q *270:6 13.8 
2 *270:6 *1270:A1 21.7643 
3 *270:6 *1316:A1 19.8536 
*END

*D_NET *271 0.00243082
*CONN
*I *1241:A1 I *D sky130_fd_sc_hd__a2111o_1
*I *1318:A1 I *D sky130_fd_sc_hd__mux2_1
*I *1392:Q O *D sky130_fd_sc_hd__dfrtp_1
*CAP
1 *1241:A1 7.60534e-05
2 *1318:A1 2.90002e-05
3 *1392:Q 0.000652934
4 *271:8 0.000757988
5 *1241:B1 *1241:A1 0.000216771
6 *1241:B1 *1318:A1 7.83659e-05
7 *1241:D1 *1241:A1 4.1331e-06
8 *1252:A1 *1241:A1 0.000272679
9 *1252:A1 *1318:A1 7.83587e-05
10 *1392:D *271:8 0.000135028
11 *1392:RESET_B *271:8 6.09889e-05
12 *102:37 *1241:A1 0
13 *118:12 *1241:A1 0
14 *175:50 *271:8 3.21441e-05
15 *190:49 *271:8 3.63775e-05
*RES
1 *1392:Q *271:8 21.3179 
2 *271:8 *1318:A1 14.8357 
3 *271:8 *1241:A1 17.2643 
*END

*D_NET *272 0.00278728
*CONN
*I *1250:B2 I *D sky130_fd_sc_hd__a221o_1
*I *1319:A1 I *D sky130_fd_sc_hd__mux2_1
*I *1393:Q O *D sky130_fd_sc_hd__dfrtp_1
*CAP
1 *1250:B2 0.000128
2 *1319:A1 3.04864e-05
3 *1393:Q 0.000719024
4 *272:8 0.00087751
5 *1241:D1 *1250:B2 9.78605e-05
6 *1241:D1 *1319:A1 0.000104974
7 *1250:A1 *1250:B2 6.05161e-06
8 *1250:A2 *1250:B2 7.94772e-05
9 *1250:B1 *1250:B2 0.000106865
10 *1254:A2 *1250:B2 4.65675e-05
11 *1393:CLK *272:8 0.000107985
12 *1393:RESET_B *272:8 0.000130739
13 *112:12 *1250:B2 0.000248486
14 *112:12 *1319:A1 0.000103253
*RES
1 *1393:Q *272:8 22.1393 
2 *272:8 *1319:A1 15.1393 
3 *272:8 *1250:B2 18.867 
*END

*D_NET *273 0.00228235
*CONN
*I *1320:A1 I *D sky130_fd_sc_hd__mux2_1
*I *1258:B2 I *D sky130_fd_sc_hd__a221o_1
*I *1394:Q O *D sky130_fd_sc_hd__dfrtp_1
*CAP
1 *1320:A1 0.000294982
2 *1258:B2 7.22703e-05
3 *1394:Q 0.00022785
4 *273:6 0.000595102
5 *1258:B1 *1258:B2 0.000173797
6 *1258:C1 *1258:B2 6.26774e-06
7 *1316:A0 *1258:B2 6.26774e-06
8 *1394:D *1320:A1 4.51495e-05
9 *1394:RESET_B *1320:A1 9.46929e-05
10 *92:27 *1258:B2 0.000198698
11 *184:72 *1320:A1 0.000255058
12 *194:87 *1320:A1 0.000312215
*RES
1 *1394:Q *273:6 12.7107 
2 *273:6 *1258:B2 20.983 
3 *273:6 *1320:A1 16.8179 
*END

*D_NET *274 0.00151966
*CONN
*I *1321:A1 I *D sky130_fd_sc_hd__mux2_1
*I *1273:B2 I *D sky130_fd_sc_hd__a221o_1
*I *1395:Q O *D sky130_fd_sc_hd__dfrtp_1
*CAP
1 *1321:A1 0.00040038
2 *1273:B2 1.17645e-05
3 *1395:Q 0.000116339
4 *274:12 0.000528484
5 *1273:A1 *274:12 7.2754e-05
6 *1273:A2 *1321:A1 3.99817e-05
7 *1273:B1 *1273:B2 2.85377e-05
8 *1273:B1 *1321:A1 3.3283e-05
9 *1274:D1 *1321:A1 0.0001812
10 *140:12 *274:12 7.50697e-05
11 *207:64 *274:12 3.18676e-05
*RES
1 *1395:Q *274:12 20.7821 
2 *274:12 *1273:B2 9.58571 
3 *274:12 *1321:A1 16.425 
*END

*D_NET *275 0.00205344
*CONN
*I *1237:B2 I *D sky130_fd_sc_hd__a22o_1
*I *1323:A1 I *D sky130_fd_sc_hd__mux2_1
*I *1396:Q O *D sky130_fd_sc_hd__dfrtp_1
*CAP
1 *1237:B2 0.00013184
2 *1323:A1 0.000550222
3 *1396:Q 3.75814e-05
4 *275:8 0.000719644
5 *1237:A1 *1237:B2 6.04256e-05
6 *1237:A1 *1323:A1 3.93893e-05
7 *1240:B2 *1237:B2 0
8 *1323:A0 *1323:A1 5.06736e-05
9 *1323:A0 *275:8 0.000230475
10 *1396:RESET_B *275:8 0.000126629
11 *1404:D *1323:A1 0
12 *1412:CLK *1323:A1 1.78649e-05
13 *1412:D *1323:A1 0
14 *107:30 *1237:B2 0
15 *187:70 *1323:A1 8.86947e-05
16 *223:12 *1323:A1 0
*RES
1 *1396:Q *275:8 15.9786 
2 *275:8 *1323:A1 21.6036 
3 *275:8 *1237:B2 16.3536 
*END

*D_NET *276 0.000771591
*CONN
*I *1246:A1 I *D sky130_fd_sc_hd__a22o_1
*I *1324:A1 I *D sky130_fd_sc_hd__mux2_1
*I *1397:Q O *D sky130_fd_sc_hd__dfrtp_1
*CAP
1 *1246:A1 0.00010372
2 *1324:A1 8.23061e-05
3 *1397:Q 0
4 *276:4 0.000186026
5 *109:14 *1246:A1 7.32272e-05
6 *109:14 *1324:A1 2.59355e-05
7 *109:25 *1246:A1 2.44318e-05
8 *173:46 *1324:A1 0.000177941
9 *178:59 *1324:A1 9.80029e-05
*RES
1 *1397:Q *276:4 9.3 
2 *276:4 *1324:A1 21.0857 
3 *276:4 *1246:A1 11.4964 
*END

*D_NET *277 0.00200991
*CONN
*I *1261:A1 I *D sky130_fd_sc_hd__a22o_1
*I *1325:A1 I *D sky130_fd_sc_hd__mux2_1
*I *1398:Q O *D sky130_fd_sc_hd__dfrtp_1
*CAP
1 *1261:A1 0.000348158
2 *1325:A1 0.000197465
3 *1398:Q 0
4 *277:4 0.000545623
5 *1262:C1 *1261:A1 1.19472e-05
6 *1325:A0 *1325:A1 0.000177941
7 *1350:A0 *1325:A1 3.34366e-05
8 *1350:S *1261:A1 0
9 *1398:RESET_B *1261:A1 7.6644e-05
10 *1398:RESET_B *1325:A1 0
11 *1418:RESET_B *1261:A1 0.000202842
12 *171:8 *1261:A1 0.000175251
13 *171:8 *1325:A1 0.000142856
14 *171:36 *1261:A1 9.77414e-05
*RES
1 *1398:Q *277:4 9.3 
2 *277:4 *1325:A1 22.2107 
3 *277:4 *1261:A1 24.6571 
*END

*D_NET *278 0.00149774
*CONN
*I *1272:A1 I *D sky130_fd_sc_hd__a22o_1
*I *1326:A1 I *D sky130_fd_sc_hd__mux2_1
*I *1399:Q O *D sky130_fd_sc_hd__dfrtp_1
*CAP
1 *1272:A1 5.69779e-05
2 *1326:A1 0.000295899
3 *1399:Q 0.000119964
4 *278:6 0.000472842
5 *1272:B2 *1326:A1 3.5848e-05
6 *1324:S *1326:A1 4.93285e-05
7 *107:26 *1272:A1 0.000225307
8 *109:29 *1272:A1 0.000225307
9 *153:42 *1326:A1 1.62621e-05
*RES
1 *1399:Q *278:6 10.6571 
2 *278:6 *1326:A1 22.1214 
3 *278:6 *1272:A1 21.1571 
*END
