*SPEF "ieee 1481-1999"
*DESIGN "regfile"
*DATE "09:09:43 Wednesday November 12, 2025"
*VENDOR "The OpenROAD Project"
*PROGRAM "OpenROAD"
*VERSION "v2.0-16235-gedf00dff9"
*DESIGN_FLOW "NAME_SCOPE LOCAL" "PIN_CAP NONE"
*DIVIDER /
*DELIMITER :
*BUS_DELIMITER []
*T_UNIT 1 NS
*C_UNIT 1 PF
*R_UNIT 1 OHM
*L_UNIT 1 HENRY

*NAME_MAP
*1 addr[0]
*2 addr[1]
*3 addr[2]
*4 addr[3]
*5 clk
*6 nrst
*7 rdata[0]
*8 rdata[1]
*9 rdata[2]
*10 rdata[3]
*13 wdata[0]
*14 wdata[1]
*15 wdata[2]
*16 wdata[3]
*17 we
*18 _000_
*19 _001_
*20 _002_
*21 _003_
*22 _004_
*23 _005_
*24 _006_
*25 _007_
*26 _008_
*27 _009_
*28 _010_
*29 _011_
*30 _012_
*31 _013_
*32 _014_
*33 _015_
*34 _016_
*35 _017_
*36 _018_
*37 _019_
*38 _020_
*39 _021_
*40 _022_
*41 _023_
*42 _024_
*43 _025_
*44 _026_
*45 _027_
*46 _028_
*47 _029_
*48 _030_
*49 _031_
*50 _032_
*51 _033_
*52 _034_
*53 _035_
*54 _036_
*55 _037_
*56 _038_
*57 _039_
*58 _040_
*59 _041_
*60 _042_
*61 _043_
*62 _044_
*63 _045_
*64 _046_
*65 _047_
*66 _048_
*67 _049_
*68 _050_
*69 _051_
*70 _052_
*71 _053_
*72 _054_
*73 _055_
*74 _056_
*75 _057_
*76 _058_
*77 _059_
*78 _060_
*79 _061_
*80 _062_
*81 _063_
*82 _064_
*83 _065_
*84 _066_
*85 _067_
*86 _068_
*87 _069_
*88 _070_
*89 _071_
*90 _072_
*91 _073_
*92 _074_
*93 _075_
*94 _076_
*95 _077_
*96 _078_
*97 _079_
*98 _080_
*99 _081_
*100 _082_
*101 _083_
*102 _084_
*103 _085_
*104 _086_
*105 _087_
*106 _088_
*107 _089_
*108 _090_
*109 _091_
*110 _092_
*111 _093_
*112 _094_
*113 _095_
*114 _096_
*115 _097_
*116 _098_
*117 _099_
*118 _100_
*119 _101_
*120 _102_
*121 _103_
*122 _104_
*123 _105_
*124 _106_
*125 _107_
*126 _108_
*127 _109_
*128 _110_
*129 _111_
*130 _112_
*131 _113_
*132 _114_
*133 _115_
*134 _116_
*135 _117_
*136 _118_
*137 _119_
*138 _120_
*139 _121_
*140 _122_
*141 _123_
*142 _124_
*143 _125_
*144 _126_
*145 _127_
*146 _128_
*147 _129_
*148 _130_
*149 _131_
*150 _132_
*151 _133_
*152 _134_
*153 _135_
*154 _136_
*155 _137_
*156 _138_
*157 _139_
*158 _140_
*159 net1
*160 net10
*161 net11
*162 net12
*163 net13
*164 net14
*165 net15
*166 net16
*167 net17
*168 net18
*169 net19
*170 net2
*171 net20
*172 net21
*173 net22
*174 net23
*175 net24
*176 net25
*177 net26
*178 net27
*179 net28
*180 net29
*181 net3
*182 net30
*183 net31
*184 net32
*185 net33
*186 net34
*187 net35
*188 net36
*189 net37
*190 net38
*191 net39
*192 net4
*193 net40
*194 net41
*195 net42
*196 net43
*197 net44
*198 net45
*199 net46
*200 net47
*201 net48
*202 net49
*203 net5
*204 net50
*205 net51
*206 net52
*207 net53
*208 net54
*209 net55
*210 net56
*211 net6
*212 net7
*213 net8
*214 net9
*215 regs\[0\]\[0\]
*216 regs\[0\]\[1\]
*217 regs\[0\]\[2\]
*218 regs\[0\]\[3\]
*219 regs\[10\]\[0\]
*220 regs\[10\]\[1\]
*221 regs\[10\]\[2\]
*222 regs\[10\]\[3\]
*223 regs\[11\]\[0\]
*224 regs\[11\]\[1\]
*225 regs\[11\]\[2\]
*226 regs\[11\]\[3\]
*227 regs\[12\]\[0\]
*228 regs\[12\]\[1\]
*229 regs\[12\]\[2\]
*230 regs\[12\]\[3\]
*231 regs\[13\]\[0\]
*232 regs\[13\]\[1\]
*233 regs\[13\]\[2\]
*234 regs\[13\]\[3\]
*235 regs\[14\]\[0\]
*236 regs\[14\]\[1\]
*237 regs\[14\]\[2\]
*238 regs\[14\]\[3\]
*239 regs\[15\]\[0\]
*240 regs\[15\]\[1\]
*241 regs\[15\]\[2\]
*242 regs\[15\]\[3\]
*243 regs\[1\]\[0\]
*244 regs\[1\]\[1\]
*245 regs\[1\]\[2\]
*246 regs\[1\]\[3\]
*247 regs\[2\]\[0\]
*248 regs\[2\]\[1\]
*249 regs\[2\]\[2\]
*250 regs\[2\]\[3\]
*251 regs\[3\]\[0\]
*252 regs\[3\]\[1\]
*253 regs\[3\]\[2\]
*254 regs\[3\]\[3\]
*255 regs\[4\]\[0\]
*256 regs\[4\]\[1\]
*257 regs\[4\]\[2\]
*258 regs\[4\]\[3\]
*259 regs\[5\]\[0\]
*260 regs\[5\]\[1\]
*261 regs\[5\]\[2\]
*262 regs\[5\]\[3\]
*263 regs\[6\]\[0\]
*264 regs\[6\]\[1\]
*265 regs\[6\]\[2\]
*266 regs\[6\]\[3\]
*267 regs\[7\]\[0\]
*268 regs\[7\]\[1\]
*269 regs\[7\]\[2\]
*270 regs\[7\]\[3\]
*271 regs\[8\]\[0\]
*272 regs\[8\]\[1\]
*273 regs\[8\]\[2\]
*274 regs\[8\]\[3\]
*275 regs\[9\]\[0\]
*276 regs\[9\]\[1\]
*277 regs\[9\]\[2\]
*278 regs\[9\]\[3\]
*279 FILLER_0_109
*280 FILLER_0_113
*281 FILLER_0_116
*282 FILLER_0_119
*283 FILLER_0_12
*284 FILLER_0_122
*285 FILLER_0_125
*286 FILLER_0_128
*287 FILLER_0_131
*288 FILLER_0_134
*289 FILLER_0_137
*290 FILLER_0_141
*291 FILLER_0_144
*292 FILLER_0_147
*293 FILLER_0_15
*294 FILLER_0_150
*295 FILLER_0_153
*296 FILLER_0_156
*297 FILLER_0_159
*298 FILLER_0_162
*299 FILLER_0_165
*300 FILLER_0_169
*301 FILLER_0_18
*302 FILLER_0_21
*303 FILLER_0_24
*304 FILLER_0_27
*305 FILLER_0_29
*306 FILLER_0_3
*307 FILLER_0_32
*308 FILLER_0_35
*309 FILLER_0_41
*310 FILLER_0_44
*311 FILLER_0_48
*312 FILLER_0_51
*313 FILLER_0_54
*314 FILLER_0_57
*315 FILLER_0_6
*316 FILLER_0_60
*317 FILLER_0_63
*318 FILLER_0_66
*319 FILLER_0_69
*320 FILLER_0_72
*321 FILLER_0_75
*322 FILLER_0_78
*323 FILLER_0_81
*324 FILLER_0_85
*325 FILLER_0_88
*326 FILLER_0_9
*327 FILLER_0_91
*328 FILLER_0_94
*329 FILLER_0_97
*330 FILLER_10_102
*331 FILLER_10_12
*332 FILLER_10_132
*333 FILLER_10_135
*334 FILLER_10_138
*335 FILLER_10_15
*336 FILLER_10_164
*337 FILLER_10_169
*338 FILLER_10_26
*339 FILLER_10_29
*340 FILLER_10_3
*341 FILLER_10_32
*342 FILLER_10_35
*343 FILLER_10_38
*344 FILLER_10_41
*345 FILLER_10_51
*346 FILLER_10_54
*347 FILLER_10_57
*348 FILLER_10_6
*349 FILLER_10_83
*350 FILLER_10_89
*351 FILLER_10_9
*352 FILLER_10_99
*353 FILLER_11_108
*354 FILLER_11_111
*355 FILLER_11_122
*356 FILLER_11_125
*357 FILLER_11_128
*358 FILLER_11_131
*359 FILLER_11_134
*360 FILLER_11_150
*361 FILLER_11_159
*362 FILLER_11_162
*363 FILLER_11_165
*364 FILLER_11_169
*365 FILLER_11_3
*366 FILLER_11_31
*367 FILLER_11_34
*368 FILLER_11_37
*369 FILLER_11_40
*370 FILLER_11_43
*371 FILLER_11_46
*372 FILLER_11_49
*373 FILLER_11_52
*374 FILLER_11_55
*375 FILLER_11_57
*376 FILLER_11_60
*377 FILLER_11_63
*378 FILLER_11_66
*379 FILLER_11_69
*380 FILLER_11_72
*381 FILLER_11_75
*382 FILLER_11_78
*383 FILLER_11_81
*384 FILLER_11_84
*385 FILLER_11_87
*386 FILLER_11_90
*387 FILLER_11_93
*388 FILLER_11_96
*389 FILLER_11_99
*390 FILLER_12_103
*391 FILLER_12_106
*392 FILLER_12_109
*393 FILLER_12_112
*394 FILLER_12_115
*395 FILLER_12_126
*396 FILLER_12_129
*397 FILLER_12_132
*398 FILLER_12_135
*399 FILLER_12_138
*400 FILLER_12_150
*401 FILLER_12_153
*402 FILLER_12_165
*403 FILLER_12_168
*404 FILLER_12_171
*405 FILLER_12_27
*406 FILLER_12_3
*407 FILLER_12_43
*408 FILLER_12_46
*409 FILLER_12_49
*410 FILLER_12_81
*411 FILLER_12_92
*412 FILLER_13_133
*413 FILLER_13_136
*414 FILLER_13_146
*415 FILLER_13_169
*416 FILLER_13_30
*417 FILLER_13_52
*418 FILLER_13_55
*419 FILLER_13_83
*420 FILLER_13_86
*421 FILLER_14_104
*422 FILLER_14_107
*423 FILLER_14_11
*424 FILLER_14_110
*425 FILLER_14_130
*426 FILLER_14_133
*427 FILLER_14_136
*428 FILLER_14_139
*429 FILLER_14_14
*430 FILLER_14_161
*431 FILLER_14_164
*432 FILLER_14_17
*433 FILLER_14_24
*434 FILLER_14_27
*435 FILLER_14_29
*436 FILLER_14_32
*437 FILLER_14_35
*438 FILLER_14_46
*439 FILLER_14_49
*440 FILLER_14_52
*441 FILLER_14_55
*442 FILLER_14_58
*443 FILLER_14_6
*444 FILLER_14_73
*445 FILLER_14_83
*446 FILLER_15_113
*447 FILLER_15_116
*448 FILLER_15_119
*449 FILLER_15_12
*450 FILLER_15_122
*451 FILLER_15_125
*452 FILLER_15_128
*453 FILLER_15_131
*454 FILLER_15_134
*455 FILLER_15_149
*456 FILLER_15_15
*457 FILLER_15_167
*458 FILLER_15_169
*459 FILLER_15_18
*460 FILLER_15_39
*461 FILLER_15_51
*462 FILLER_15_54
*463 FILLER_15_57
*464 FILLER_15_6
*465 FILLER_15_9
*466 FILLER_15_92
*467 FILLER_15_95
*468 FILLER_16_101
*469 FILLER_16_104
*470 FILLER_16_107
*471 FILLER_16_110
*472 FILLER_16_12
*473 FILLER_16_131
*474 FILLER_16_134
*475 FILLER_16_137
*476 FILLER_16_15
*477 FILLER_16_150
*478 FILLER_16_18
*479 FILLER_16_21
*480 FILLER_16_24
*481 FILLER_16_27
*482 FILLER_16_29
*483 FILLER_16_40
*484 FILLER_16_55
*485 FILLER_16_58
*486 FILLER_16_6
*487 FILLER_16_63
*488 FILLER_16_76
*489 FILLER_16_79
*490 FILLER_16_82
*491 FILLER_16_9
*492 FILLER_16_98
*493 FILLER_17_122
*494 FILLER_17_125
*495 FILLER_17_163
*496 FILLER_17_169
*497 FILLER_17_3
*498 FILLER_17_39
*499 FILLER_17_47
*500 FILLER_17_50
*501 FILLER_17_53
*502 FILLER_17_6
*503 FILLER_17_66
*504 FILLER_17_69
*505 FILLER_17_9
*506 FILLER_18_102
*507 FILLER_18_105
*508 FILLER_18_108
*509 FILLER_18_111
*510 FILLER_18_114
*511 FILLER_18_117
*512 FILLER_18_12
*513 FILLER_18_128
*514 FILLER_18_131
*515 FILLER_18_134
*516 FILLER_18_137
*517 FILLER_18_15
*518 FILLER_18_170
*519 FILLER_18_18
*520 FILLER_18_21
*521 FILLER_18_24
*522 FILLER_18_27
*523 FILLER_18_29
*524 FILLER_18_3
*525 FILLER_18_32
*526 FILLER_18_35
*527 FILLER_18_38
*528 FILLER_18_41
*529 FILLER_18_44
*530 FILLER_18_6
*531 FILLER_18_66
*532 FILLER_18_69
*533 FILLER_18_72
*534 FILLER_18_75
*535 FILLER_18_78
*536 FILLER_18_81
*537 FILLER_18_9
*538 FILLER_19_107
*539 FILLER_19_110
*540 FILLER_19_113
*541 FILLER_19_12
*542 FILLER_19_148
*543 FILLER_19_15
*544 FILLER_19_151
*545 FILLER_19_154
*546 FILLER_19_157
*547 FILLER_19_160
*548 FILLER_19_163
*549 FILLER_19_166
*550 FILLER_19_169
*551 FILLER_19_3
*552 FILLER_19_6
*553 FILLER_19_66
*554 FILLER_19_77
*555 FILLER_19_80
*556 FILLER_19_87
*557 FILLER_19_9
*558 FILLER_19_97
*559 FILLER_1_113
*560 FILLER_1_116
*561 FILLER_1_119
*562 FILLER_1_12
*563 FILLER_1_129
*564 FILLER_1_132
*565 FILLER_1_135
*566 FILLER_1_138
*567 FILLER_1_141
*568 FILLER_1_144
*569 FILLER_1_147
*570 FILLER_1_15
*571 FILLER_1_150
*572 FILLER_1_153
*573 FILLER_1_156
*574 FILLER_1_159
*575 FILLER_1_162
*576 FILLER_1_165
*577 FILLER_1_169
*578 FILLER_1_18
*579 FILLER_1_21
*580 FILLER_1_24
*581 FILLER_1_27
*582 FILLER_1_3
*583 FILLER_1_30
*584 FILLER_1_33
*585 FILLER_1_6
*586 FILLER_1_66
*587 FILLER_1_69
*588 FILLER_1_72
*589 FILLER_1_75
*590 FILLER_1_78
*591 FILLER_1_88
*592 FILLER_1_9
*593 FILLER_1_91
*594 FILLER_20_105
*595 FILLER_20_12
*596 FILLER_20_128
*597 FILLER_20_131
*598 FILLER_20_134
*599 FILLER_20_137
*600 FILLER_20_150
*601 FILLER_20_158
*602 FILLER_20_169
*603 FILLER_20_29
*604 FILLER_20_3
*605 FILLER_20_40
*606 FILLER_20_43
*607 FILLER_20_46
*608 FILLER_20_49
*609 FILLER_20_52
*610 FILLER_20_55
*611 FILLER_20_58
*612 FILLER_20_6
*613 FILLER_20_81
*614 FILLER_20_9
*615 FILLER_21_100
*616 FILLER_21_103
*617 FILLER_21_109
*618 FILLER_21_122
*619 FILLER_21_125
*620 FILLER_21_128
*621 FILLER_21_131
*622 FILLER_21_134
*623 FILLER_21_137
*624 FILLER_21_146
*625 FILLER_21_169
*626 FILLER_21_29
*627 FILLER_21_3
*628 FILLER_21_32
*629 FILLER_21_35
*630 FILLER_21_38
*631 FILLER_21_46
*632 FILLER_21_49
*633 FILLER_21_52
*634 FILLER_21_55
*635 FILLER_21_6
*636 FILLER_21_66
*637 FILLER_21_69
*638 FILLER_21_72
*639 FILLER_21_94
*640 FILLER_21_97
*641 FILLER_22_102
*642 FILLER_22_12
*643 FILLER_22_132
*644 FILLER_22_135
*645 FILLER_22_138
*646 FILLER_22_146
*647 FILLER_22_149
*648 FILLER_22_15
*649 FILLER_22_152
*650 FILLER_22_167
*651 FILLER_22_170
*652 FILLER_22_18
*653 FILLER_22_21
*654 FILLER_22_24
*655 FILLER_22_27
*656 FILLER_22_3
*657 FILLER_22_39
*658 FILLER_22_42
*659 FILLER_22_6
*660 FILLER_22_70
*661 FILLER_22_73
*662 FILLER_22_76
*663 FILLER_22_79
*664 FILLER_22_82
*665 FILLER_22_9
*666 FILLER_23_100
*667 FILLER_23_103
*668 FILLER_23_106
*669 FILLER_23_109
*670 FILLER_23_113
*671 FILLER_23_116
*672 FILLER_23_12
*673 FILLER_23_138
*674 FILLER_23_15
*675 FILLER_23_169
*676 FILLER_23_18
*677 FILLER_23_3
*678 FILLER_23_55
*679 FILLER_23_6
*680 FILLER_23_61
*681 FILLER_23_64
*682 FILLER_23_67
*683 FILLER_23_70
*684 FILLER_23_73
*685 FILLER_23_85
*686 FILLER_23_88
*687 FILLER_23_9
*688 FILLER_23_91
*689 FILLER_23_94
*690 FILLER_23_97
*691 FILLER_24_102
*692 FILLER_24_105
*693 FILLER_24_114
*694 FILLER_24_12
*695 FILLER_24_122
*696 FILLER_24_125
*697 FILLER_24_128
*698 FILLER_24_131
*699 FILLER_24_134
*700 FILLER_24_137
*701 FILLER_24_141
*702 FILLER_24_144
*703 FILLER_24_147
*704 FILLER_24_15
*705 FILLER_24_166
*706 FILLER_24_18
*707 FILLER_24_21
*708 FILLER_24_24
*709 FILLER_24_27
*710 FILLER_24_29
*711 FILLER_24_3
*712 FILLER_24_32
*713 FILLER_24_43
*714 FILLER_24_46
*715 FILLER_24_49
*716 FILLER_24_6
*717 FILLER_24_64
*718 FILLER_24_76
*719 FILLER_24_79
*720 FILLER_24_82
*721 FILLER_24_9
*722 FILLER_24_94
*723 FILLER_25_101
*724 FILLER_25_104
*725 FILLER_25_107
*726 FILLER_25_110
*727 FILLER_25_113
*728 FILLER_25_116
*729 FILLER_25_119
*730 FILLER_25_12
*731 FILLER_25_122
*732 FILLER_25_134
*733 FILLER_25_137
*734 FILLER_25_140
*735 FILLER_25_15
*736 FILLER_25_162
*737 FILLER_25_165
*738 FILLER_25_169
*739 FILLER_25_18
*740 FILLER_25_21
*741 FILLER_25_3
*742 FILLER_25_45
*743 FILLER_25_48
*744 FILLER_25_51
*745 FILLER_25_54
*746 FILLER_25_6
*747 FILLER_25_77
*748 FILLER_25_9
*749 FILLER_25_98
*750 FILLER_26_101
*751 FILLER_26_12
*752 FILLER_26_141
*753 FILLER_26_144
*754 FILLER_26_147
*755 FILLER_26_15
*756 FILLER_26_150
*757 FILLER_26_153
*758 FILLER_26_156
*759 FILLER_26_159
*760 FILLER_26_162
*761 FILLER_26_165
*762 FILLER_26_168
*763 FILLER_26_171
*764 FILLER_26_18
*765 FILLER_26_21
*766 FILLER_26_24
*767 FILLER_26_27
*768 FILLER_26_33
*769 FILLER_26_36
*770 FILLER_26_39
*771 FILLER_26_42
*772 FILLER_26_45
*773 FILLER_26_48
*774 FILLER_26_51
*775 FILLER_26_54
*776 FILLER_26_6
*777 FILLER_26_76
*778 FILLER_26_79
*779 FILLER_26_85
*780 FILLER_26_9
*781 FILLER_26_95
*782 FILLER_26_98
*783 FILLER_27_12
*784 FILLER_27_133
*785 FILLER_27_136
*786 FILLER_27_139
*787 FILLER_27_142
*788 FILLER_27_145
*789 FILLER_27_148
*790 FILLER_27_15
*791 FILLER_27_151
*792 FILLER_27_154
*793 FILLER_27_157
*794 FILLER_27_160
*795 FILLER_27_163
*796 FILLER_27_166
*797 FILLER_27_169
*798 FILLER_27_18
*799 FILLER_27_21
*800 FILLER_27_24
*801 FILLER_27_27
*802 FILLER_27_3
*803 FILLER_27_30
*804 FILLER_27_33
*805 FILLER_27_36
*806 FILLER_27_39
*807 FILLER_27_42
*808 FILLER_27_45
*809 FILLER_27_48
*810 FILLER_27_51
*811 FILLER_27_54
*812 FILLER_27_57
*813 FILLER_27_6
*814 FILLER_27_60
*815 FILLER_27_9
*816 FILLER_28_100
*817 FILLER_28_103
*818 FILLER_28_106
*819 FILLER_28_109
*820 FILLER_28_113
*821 FILLER_28_119
*822 FILLER_28_12
*823 FILLER_28_126
*824 FILLER_28_129
*825 FILLER_28_132
*826 FILLER_28_135
*827 FILLER_28_138
*828 FILLER_28_141
*829 FILLER_28_144
*830 FILLER_28_147
*831 FILLER_28_15
*832 FILLER_28_150
*833 FILLER_28_153
*834 FILLER_28_156
*835 FILLER_28_159
*836 FILLER_28_162
*837 FILLER_28_165
*838 FILLER_28_169
*839 FILLER_28_18
*840 FILLER_28_21
*841 FILLER_28_24
*842 FILLER_28_27
*843 FILLER_28_29
*844 FILLER_28_3
*845 FILLER_28_32
*846 FILLER_28_35
*847 FILLER_28_38
*848 FILLER_28_41
*849 FILLER_28_44
*850 FILLER_28_47
*851 FILLER_28_50
*852 FILLER_28_53
*853 FILLER_28_57
*854 FILLER_28_6
*855 FILLER_28_60
*856 FILLER_28_63
*857 FILLER_28_66
*858 FILLER_28_69
*859 FILLER_28_72
*860 FILLER_28_75
*861 FILLER_28_78
*862 FILLER_28_81
*863 FILLER_28_85
*864 FILLER_28_88
*865 FILLER_28_9
*866 FILLER_28_91
*867 FILLER_28_94
*868 FILLER_28_97
*869 FILLER_2_111
*870 FILLER_2_114
*871 FILLER_2_12
*872 FILLER_2_135
*873 FILLER_2_138
*874 FILLER_2_15
*875 FILLER_2_150
*876 FILLER_2_153
*877 FILLER_2_156
*878 FILLER_2_159
*879 FILLER_2_162
*880 FILLER_2_165
*881 FILLER_2_168
*882 FILLER_2_18
*883 FILLER_2_21
*884 FILLER_2_24
*885 FILLER_2_27
*886 FILLER_2_29
*887 FILLER_2_3
*888 FILLER_2_32
*889 FILLER_2_6
*890 FILLER_2_9
*891 FILLER_3_109
*892 FILLER_3_113
*893 FILLER_3_116
*894 FILLER_3_12
*895 FILLER_3_128
*896 FILLER_3_131
*897 FILLER_3_134
*898 FILLER_3_15
*899 FILLER_3_156
*900 FILLER_3_159
*901 FILLER_3_162
*902 FILLER_3_165
*903 FILLER_3_169
*904 FILLER_3_3
*905 FILLER_3_47
*906 FILLER_3_50
*907 FILLER_3_53
*908 FILLER_3_6
*909 FILLER_3_66
*910 FILLER_3_69
*911 FILLER_3_72
*912 FILLER_3_86
*913 FILLER_3_9
*914 FILLER_4_105
*915 FILLER_4_108
*916 FILLER_4_111
*917 FILLER_4_132
*918 FILLER_4_135
*919 FILLER_4_138
*920 FILLER_4_141
*921 FILLER_4_144
*922 FILLER_4_159
*923 FILLER_4_162
*924 FILLER_4_165
*925 FILLER_4_168
*926 FILLER_4_27
*927 FILLER_4_3
*928 FILLER_4_33
*929 FILLER_4_36
*930 FILLER_4_44
*931 FILLER_4_47
*932 FILLER_4_50
*933 FILLER_4_58
*934 FILLER_4_6
*935 FILLER_4_61
*936 FILLER_4_66
*937 FILLER_4_69
*938 FILLER_4_72
*939 FILLER_4_83
*940 FILLER_4_85
*941 FILLER_4_88
*942 FILLER_5_108
*943 FILLER_5_111
*944 FILLER_5_113
*945 FILLER_5_12
*946 FILLER_5_121
*947 FILLER_5_124
*948 FILLER_5_127
*949 FILLER_5_130
*950 FILLER_5_133
*951 FILLER_5_136
*952 FILLER_5_15
*953 FILLER_5_156
*954 FILLER_5_159
*955 FILLER_5_162
*956 FILLER_5_165
*957 FILLER_5_169
*958 FILLER_5_25
*959 FILLER_5_28
*960 FILLER_5_3
*961 FILLER_5_31
*962 FILLER_5_34
*963 FILLER_5_65
*964 FILLER_5_87
*965 FILLER_5_9
*966 FILLER_5_90
*967 FILLER_6_110
*968 FILLER_6_113
*969 FILLER_6_116
*970 FILLER_6_119
*971 FILLER_6_129
*972 FILLER_6_132
*973 FILLER_6_135
*974 FILLER_6_138
*975 FILLER_6_170
*976 FILLER_6_24
*977 FILLER_6_27
*978 FILLER_6_3
*979 FILLER_6_36
*980 FILLER_6_50
*981 FILLER_6_53
*982 FILLER_6_56
*983 FILLER_6_59
*984 FILLER_6_67
*985 FILLER_6_70
*986 FILLER_6_73
*987 FILLER_6_76
*988 FILLER_6_79
*989 FILLER_6_82
*990 FILLER_6_85
*991 FILLER_6_88
*992 FILLER_7_104
*993 FILLER_7_107
*994 FILLER_7_110
*995 FILLER_7_113
*996 FILLER_7_12
*997 FILLER_7_134
*998 FILLER_7_137
*999 FILLER_7_140
*1000 FILLER_7_15
*1001 FILLER_7_18
*1002 FILLER_7_3
*1003 FILLER_7_48
*1004 FILLER_7_51
*1005 FILLER_7_54
*1006 FILLER_7_6
*1007 FILLER_7_66
*1008 FILLER_7_69
*1009 FILLER_7_9
*1010 FILLER_7_94
*1011 FILLER_8_101
*1012 FILLER_8_104
*1013 FILLER_8_107
*1014 FILLER_8_110
*1015 FILLER_8_113
*1016 FILLER_8_116
*1017 FILLER_8_119
*1018 FILLER_8_12
*1019 FILLER_8_122
*1020 FILLER_8_132
*1021 FILLER_8_135
*1022 FILLER_8_138
*1023 FILLER_8_141
*1024 FILLER_8_144
*1025 FILLER_8_147
*1026 FILLER_8_15
*1027 FILLER_8_164
*1028 FILLER_8_167
*1029 FILLER_8_170
*1030 FILLER_8_25
*1031 FILLER_8_29
*1032 FILLER_8_3
*1033 FILLER_8_32
*1034 FILLER_8_35
*1035 FILLER_8_46
*1036 FILLER_8_6
*1037 FILLER_8_68
*1038 FILLER_8_71
*1039 FILLER_8_74
*1040 FILLER_8_77
*1041 FILLER_8_80
*1042 FILLER_8_83
*1043 FILLER_8_9
*1044 FILLER_9_103
*1045 FILLER_9_106
*1046 FILLER_9_109
*1047 FILLER_9_113
*1048 FILLER_9_116
*1049 FILLER_9_137
*1050 FILLER_9_23
*1051 FILLER_9_26
*1052 FILLER_9_29
*1053 FILLER_9_51
*1054 FILLER_9_54
*1055 FILLER_9_57
*1056 FILLER_9_60
*1057 FILLER_9_63
*1058 FILLER_9_66
*1059 FILLER_9_81
*1060 PHY_EDGE_ROW_0_Left_29
*1061 PHY_EDGE_ROW_0_Right_0
*1062 PHY_EDGE_ROW_10_Left_39
*1063 PHY_EDGE_ROW_10_Right_10
*1064 PHY_EDGE_ROW_11_Left_40
*1065 PHY_EDGE_ROW_11_Right_11
*1066 PHY_EDGE_ROW_12_Left_41
*1067 PHY_EDGE_ROW_12_Right_12
*1068 PHY_EDGE_ROW_13_Left_42
*1069 PHY_EDGE_ROW_13_Right_13
*1070 PHY_EDGE_ROW_14_Left_43
*1071 PHY_EDGE_ROW_14_Right_14
*1072 PHY_EDGE_ROW_15_Left_44
*1073 PHY_EDGE_ROW_15_Right_15
*1074 PHY_EDGE_ROW_16_Left_45
*1075 PHY_EDGE_ROW_16_Right_16
*1076 PHY_EDGE_ROW_17_Left_46
*1077 PHY_EDGE_ROW_17_Right_17
*1078 PHY_EDGE_ROW_18_Left_47
*1079 PHY_EDGE_ROW_18_Right_18
*1080 PHY_EDGE_ROW_19_Left_48
*1081 PHY_EDGE_ROW_19_Right_19
*1082 PHY_EDGE_ROW_1_Left_30
*1083 PHY_EDGE_ROW_1_Right_1
*1084 PHY_EDGE_ROW_20_Left_49
*1085 PHY_EDGE_ROW_20_Right_20
*1086 PHY_EDGE_ROW_21_Left_50
*1087 PHY_EDGE_ROW_21_Right_21
*1088 PHY_EDGE_ROW_22_Left_51
*1089 PHY_EDGE_ROW_22_Right_22
*1090 PHY_EDGE_ROW_23_Left_52
*1091 PHY_EDGE_ROW_23_Right_23
*1092 PHY_EDGE_ROW_24_Left_53
*1093 PHY_EDGE_ROW_24_Right_24
*1094 PHY_EDGE_ROW_25_Left_54
*1095 PHY_EDGE_ROW_25_Right_25
*1096 PHY_EDGE_ROW_26_Left_55
*1097 PHY_EDGE_ROW_26_Right_26
*1098 PHY_EDGE_ROW_27_Left_56
*1099 PHY_EDGE_ROW_27_Right_27
*1100 PHY_EDGE_ROW_28_Left_57
*1101 PHY_EDGE_ROW_28_Right_28
*1102 PHY_EDGE_ROW_2_Left_31
*1103 PHY_EDGE_ROW_2_Right_2
*1104 PHY_EDGE_ROW_3_Left_32
*1105 PHY_EDGE_ROW_3_Right_3
*1106 PHY_EDGE_ROW_4_Left_33
*1107 PHY_EDGE_ROW_4_Right_4
*1108 PHY_EDGE_ROW_5_Left_34
*1109 PHY_EDGE_ROW_5_Right_5
*1110 PHY_EDGE_ROW_6_Left_35
*1111 PHY_EDGE_ROW_6_Right_6
*1112 PHY_EDGE_ROW_7_Left_36
*1113 PHY_EDGE_ROW_7_Right_7
*1114 PHY_EDGE_ROW_8_Left_37
*1115 PHY_EDGE_ROW_8_Right_8
*1116 PHY_EDGE_ROW_9_Left_38
*1117 PHY_EDGE_ROW_9_Right_9
*1118 TAP_TAPCELL_ROW_0_58
*1119 TAP_TAPCELL_ROW_0_59
*1120 TAP_TAPCELL_ROW_0_60
*1121 TAP_TAPCELL_ROW_0_61
*1122 TAP_TAPCELL_ROW_0_62
*1123 TAP_TAPCELL_ROW_0_63
*1124 TAP_TAPCELL_ROW_10_91
*1125 TAP_TAPCELL_ROW_10_92
*1126 TAP_TAPCELL_ROW_10_93
*1127 TAP_TAPCELL_ROW_11_94
*1128 TAP_TAPCELL_ROW_11_95
*1129 TAP_TAPCELL_ROW_11_96
*1130 TAP_TAPCELL_ROW_12_97
*1131 TAP_TAPCELL_ROW_12_98
*1132 TAP_TAPCELL_ROW_12_99
*1133 TAP_TAPCELL_ROW_13_100
*1134 TAP_TAPCELL_ROW_13_101
*1135 TAP_TAPCELL_ROW_13_102
*1136 TAP_TAPCELL_ROW_14_103
*1137 TAP_TAPCELL_ROW_14_104
*1138 TAP_TAPCELL_ROW_14_105
*1139 TAP_TAPCELL_ROW_15_106
*1140 TAP_TAPCELL_ROW_15_107
*1141 TAP_TAPCELL_ROW_15_108
*1142 TAP_TAPCELL_ROW_16_109
*1143 TAP_TAPCELL_ROW_16_110
*1144 TAP_TAPCELL_ROW_16_111
*1145 TAP_TAPCELL_ROW_17_112
*1146 TAP_TAPCELL_ROW_17_113
*1147 TAP_TAPCELL_ROW_17_114
*1148 TAP_TAPCELL_ROW_18_115
*1149 TAP_TAPCELL_ROW_18_116
*1150 TAP_TAPCELL_ROW_18_117
*1151 TAP_TAPCELL_ROW_19_118
*1152 TAP_TAPCELL_ROW_19_119
*1153 TAP_TAPCELL_ROW_19_120
*1154 TAP_TAPCELL_ROW_1_64
*1155 TAP_TAPCELL_ROW_1_65
*1156 TAP_TAPCELL_ROW_1_66
*1157 TAP_TAPCELL_ROW_20_121
*1158 TAP_TAPCELL_ROW_20_122
*1159 TAP_TAPCELL_ROW_20_123
*1160 TAP_TAPCELL_ROW_21_124
*1161 TAP_TAPCELL_ROW_21_125
*1162 TAP_TAPCELL_ROW_21_126
*1163 TAP_TAPCELL_ROW_22_127
*1164 TAP_TAPCELL_ROW_22_128
*1165 TAP_TAPCELL_ROW_22_129
*1166 TAP_TAPCELL_ROW_23_130
*1167 TAP_TAPCELL_ROW_23_131
*1168 TAP_TAPCELL_ROW_23_132
*1169 TAP_TAPCELL_ROW_24_133
*1170 TAP_TAPCELL_ROW_24_134
*1171 TAP_TAPCELL_ROW_24_135
*1172 TAP_TAPCELL_ROW_25_136
*1173 TAP_TAPCELL_ROW_25_137
*1174 TAP_TAPCELL_ROW_25_138
*1175 TAP_TAPCELL_ROW_26_139
*1176 TAP_TAPCELL_ROW_26_140
*1177 TAP_TAPCELL_ROW_26_141
*1178 TAP_TAPCELL_ROW_27_142
*1179 TAP_TAPCELL_ROW_27_143
*1180 TAP_TAPCELL_ROW_27_144
*1181 TAP_TAPCELL_ROW_28_145
*1182 TAP_TAPCELL_ROW_28_146
*1183 TAP_TAPCELL_ROW_28_147
*1184 TAP_TAPCELL_ROW_28_148
*1185 TAP_TAPCELL_ROW_28_149
*1186 TAP_TAPCELL_ROW_28_150
*1187 TAP_TAPCELL_ROW_2_67
*1188 TAP_TAPCELL_ROW_2_68
*1189 TAP_TAPCELL_ROW_2_69
*1190 TAP_TAPCELL_ROW_3_70
*1191 TAP_TAPCELL_ROW_3_71
*1192 TAP_TAPCELL_ROW_3_72
*1193 TAP_TAPCELL_ROW_4_73
*1194 TAP_TAPCELL_ROW_4_74
*1195 TAP_TAPCELL_ROW_4_75
*1196 TAP_TAPCELL_ROW_5_76
*1197 TAP_TAPCELL_ROW_5_77
*1198 TAP_TAPCELL_ROW_5_78
*1199 TAP_TAPCELL_ROW_6_79
*1200 TAP_TAPCELL_ROW_6_80
*1201 TAP_TAPCELL_ROW_6_81
*1202 TAP_TAPCELL_ROW_7_82
*1203 TAP_TAPCELL_ROW_7_83
*1204 TAP_TAPCELL_ROW_7_84
*1205 TAP_TAPCELL_ROW_8_85
*1206 TAP_TAPCELL_ROW_8_86
*1207 TAP_TAPCELL_ROW_8_87
*1208 TAP_TAPCELL_ROW_9_88
*1209 TAP_TAPCELL_ROW_9_89
*1210 TAP_TAPCELL_ROW_9_90
*1211 _141_
*1212 _142_
*1213 _143_
*1214 _144_
*1215 _145_
*1216 _146_
*1217 _147_
*1218 _148_
*1219 _149_
*1220 _150_
*1221 _151_
*1222 _152_
*1223 _153_
*1224 _154_
*1225 _155_
*1226 _156_
*1227 _157_
*1228 _158_
*1229 _159_
*1230 _160_
*1231 _161_
*1232 _162_
*1233 _163_
*1234 _164_
*1235 _165_
*1236 _166_
*1237 _167_
*1238 _168_
*1239 _169_
*1240 _170_
*1241 _171_
*1242 _172_
*1243 _173_
*1244 _174_
*1245 _175_
*1246 _176_
*1247 _177_
*1248 _178_
*1249 _179_
*1250 _180_
*1251 _181_
*1252 _182_
*1253 _183_
*1254 _184_
*1255 _185_
*1256 _186_
*1257 _187_
*1258 _188_
*1259 _189_
*1260 _190_
*1261 _191_
*1262 _192_
*1263 _193_
*1264 _194_
*1265 _195_
*1266 _196_
*1267 _197_
*1268 _198_
*1269 _199_
*1270 _200_
*1271 _201_
*1272 _202_
*1273 _203_
*1274 _204_
*1275 _205_
*1276 _206_
*1277 _207_
*1278 _208_
*1279 _209_
*1280 _210_
*1281 _211_
*1282 _212_
*1283 _213_
*1284 _214_
*1285 _215_
*1286 _216_
*1287 _217_
*1288 _218_
*1289 _219_
*1290 _220_
*1291 _221_
*1292 _222_
*1293 _223_
*1294 _224_
*1295 _225_
*1296 _226_
*1297 _227_
*1298 _228_
*1299 _229_
*1300 _230_
*1301 _231_
*1302 _232_
*1303 _233_
*1304 _234_
*1305 _235_
*1306 _236_
*1307 _237_
*1308 _238_
*1309 _239_
*1310 _240_
*1311 _241_
*1312 _242_
*1313 _243_
*1314 _244_
*1315 _245_
*1316 _246_
*1317 _247_
*1318 _248_
*1319 _249_
*1320 _250_
*1321 _251_
*1322 _252_
*1323 _253_
*1324 _254_
*1325 _255_
*1326 _256_
*1327 _257_
*1328 _258_
*1329 _259_
*1330 _260_
*1331 _261_
*1332 _262_
*1333 _263_
*1334 _264_
*1335 _265_
*1336 _266_
*1337 _267_
*1338 _268_
*1339 _269_
*1340 _270_
*1341 _271_
*1342 _272_
*1343 _273_
*1344 _274_
*1345 _275_
*1346 _276_
*1347 _277_
*1348 _278_
*1349 _279_
*1350 _280_
*1351 _281_
*1352 _282_
*1353 _283_
*1354 _284_
*1355 _285_
*1356 _286_
*1357 _287_
*1358 _288_
*1359 _289_
*1360 _290_
*1361 _291_
*1362 _292_
*1363 _293_
*1364 _294_
*1365 _295_
*1366 _296_
*1367 _297_
*1368 _298_
*1369 _299_
*1370 _300_
*1371 _301_
*1372 _302_
*1373 _303_
*1374 _304_
*1375 _305_
*1376 _306_
*1377 _307_
*1378 _308_
*1379 _309_
*1380 _310_
*1381 _311_
*1382 _312_
*1383 _313_
*1384 _314_
*1385 _315_
*1386 _316_
*1387 _317_
*1388 _318_
*1389 _319_
*1390 _320_
*1391 _321_
*1392 _322_
*1393 _323_
*1394 _324_
*1395 _325_
*1396 _326_
*1397 _327_
*1398 _328_
*1399 _329_
*1400 _330_
*1401 _331_
*1402 _332_
*1403 _333_
*1404 _334_
*1405 _335_
*1406 _336_
*1407 _337_
*1408 _338_
*1409 _339_
*1410 _340_
*1411 _341_
*1412 _342_
*1413 _343_
*1414 _344_
*1415 _345_
*1416 _346_
*1417 _347_
*1418 _348_
*1419 _349_
*1420 fanout20
*1421 fanout21
*1422 fanout22
*1423 fanout23
*1424 fanout24
*1425 fanout25
*1426 fanout26
*1427 fanout27
*1428 fanout28
*1429 fanout29
*1430 fanout30
*1431 fanout31
*1432 fanout32
*1433 fanout33
*1434 fanout34
*1435 fanout35
*1436 fanout36
*1437 fanout37
*1438 fanout38
*1439 fanout39
*1440 fanout40
*1441 fanout41
*1442 fanout42
*1443 fanout43
*1444 fanout44
*1445 fanout45
*1446 fanout46
*1447 fanout47
*1448 fanout48
*1449 fanout49
*1450 fanout50
*1451 fanout51
*1452 fanout52
*1453 fanout53
*1454 fanout54
*1455 fanout55
*1456 fanout56
*1457 input1
*1458 input10
*1459 input11
*1460 input2
*1461 input3
*1462 input4
*1463 input5
*1464 input6
*1465 input7
*1466 input8
*1467 input9
*1468 max_cap16
*1469 max_cap17
*1470 max_cap19
*1471 output12
*1472 output13
*1473 output14
*1474 output15
*1475 wire18

*PORTS
addr[0] I
addr[1] I
addr[2] I
addr[3] I
clk I
nrst I
rdata[0] O
rdata[1] O
rdata[2] O
rdata[3] O
wdata[0] I
wdata[1] I
wdata[2] I
wdata[3] I
we I

*D_NET *1 0.000492795
*CONN
*P addr[0] I
*I *1457:A I *D sky130_fd_sc_hd__buf_1
*CAP
1 addr[0] 0.000217867
2 *1457:A 0.000217867
3 *1457:A *1455:A 2.56523e-05
4 *1457:A *1460:A 0
5 *1457:A *1462:A 3.14094e-05
*RES
1 addr[0] *1457:A 5.35677 
*END

*D_NET *2 0.000754463
*CONN
*P addr[1] I
*I *1460:A I *D sky130_fd_sc_hd__buf_1
*CAP
1 addr[1] 0.000280516
2 *1460:A 0.000280516
3 *1460:A *1455:A 5.98004e-06
4 *1460:A *1461:A 3.14094e-05
5 *1460:A *1462:A 2.15176e-05
6 *1460:A *188:14 0.000128991
7 *1460:A *192:12 5.53249e-06
8 *1457:A *1460:A 0
*RES
1 addr[1] *1460:A 6.37677 
*END

*D_NET *3 0.000735976
*CONN
*P addr[2] I
*I *1461:A I *D sky130_fd_sc_hd__clkbuf_1
*CAP
1 addr[2] 0.000349368
2 *1461:A 0.000349368
3 *1461:A *1381:CLK 5.83121e-06
4 *1461:A *188:14 0
5 *1461:A *188:16 0
6 *1460:A *1461:A 3.14094e-05
*RES
1 addr[2] *1461:A 8.6193 
*END

*D_NET *4 0.000622677
*CONN
*P addr[3] I
*I *1462:A I *D sky130_fd_sc_hd__buf_1
*CAP
1 addr[3] 0.000284875
2 *1462:A 0.000284875
3 *1462:A *1455:A 0
4 *1457:A *1462:A 3.14094e-05
5 *1460:A *1462:A 2.15176e-05
*RES
1 addr[3] *1462:A 7.5993 
*END

*D_NET *5 0.000535568
*CONN
*P clk I
*I *1463:A I *D sky130_fd_sc_hd__clkbuf_1
*CAP
1 clk 0.000267784
2 *1463:A 0.000267784
*RES
1 clk *1463:A 6.8343 
*END

*D_NET *6 0.000437436
*CONN
*P nrst I
*I *1464:A I *D sky130_fd_sc_hd__clkbuf_1
*CAP
1 nrst 0.000171216
2 *1464:A 0.000171216
3 *1464:A *1465:A 9.50048e-05
*RES
1 nrst *1464:A 4.90503 
*END

*D_NET *7 0.000609655
*CONN
*P rdata[0] O
*I *1471:X O *D sky130_fd_sc_hd__buf_2
*CAP
1 rdata[0] 0.000291476
2 *1471:X 0.000291476
3 rdata[0] *1471:A 2.67022e-05
*RES
1 *1471:X rdata[0] 5.9833 
*END

*D_NET *8 0.00117935
*CONN
*P rdata[1] O
*I *1472:X O *D sky130_fd_sc_hd__buf_2
*CAP
1 rdata[1] 0.000477998
2 *1472:X 0.000477998
3 rdata[1] *1255:A2 0.000134296
4 rdata[1] *1472:A 8.90621e-05
*RES
1 *1472:X rdata[1] 7.91483 
*END

*D_NET *9 0.000950239
*CONN
*P rdata[2] O
*I *1473:X O *D sky130_fd_sc_hd__buf_2
*CAP
1 rdata[2] 0.00047512
2 *1473:X 0.00047512
3 rdata[2] rdata[3] 0
*RES
1 *1473:X rdata[2] 12.06 
*END

*D_NET *10 0.000974607
*CONN
*P rdata[3] O
*I *1474:X O *D sky130_fd_sc_hd__buf_2
*CAP
1 rdata[3] 0.000487304
2 *1474:X 0.000487304
3 rdata[2] rdata[3] 0
*RES
1 *1474:X rdata[3] 11.715 
*END

*D_NET *13 0.000657028
*CONN
*P wdata[0] I
*I *1465:A I *D sky130_fd_sc_hd__buf_1
*CAP
1 wdata[0] 0.000238168
2 *1465:A 0.000238168
3 *1465:A *1434:A 8.56869e-05
4 *1464:A *1465:A 9.50048e-05
*RES
1 wdata[0] *1465:A 6.43503 
*END

*D_NET *14 0.000463518
*CONN
*P wdata[1] I
*I *1466:A I *D sky130_fd_sc_hd__buf_1
*CAP
1 wdata[1] 0.000184257
2 *1466:A 0.000184257
3 *1466:A *1338:A1 0
4 *1466:A *1459:A 9.50048e-05
*RES
1 wdata[1] *1466:A 5.16003 
*END

*D_NET *15 0.000886606
*CONN
*P wdata[2] I
*I *1467:A I *D sky130_fd_sc_hd__buf_1
*CAP
1 wdata[2] 0.000443303
2 *1467:A 0.000443303
3 *1467:A *1458:A 0
*RES
1 wdata[2] *1467:A 11.04 
*END

*D_NET *16 0.000771481
*CONN
*P wdata[3] I
*I *1458:A I *D sky130_fd_sc_hd__buf_1
*CAP
1 wdata[3] 0.000385741
2 *1458:A 0.000385741
3 *1467:A *1458:A 0
*RES
1 wdata[3] *1458:A 10.455 
*END

*D_NET *17 0.000662312
*CONN
*P we I
*I *1459:A I *D sky130_fd_sc_hd__clkbuf_1
*CAP
1 we 0.000283654
2 *1459:A 0.000283654
3 *1459:A *186:38 0
4 *1466:A *1459:A 9.50048e-05
*RES
1 we *1459:A 6.69003 
*END

*D_NET *18 0.000724782
*CONN
*I *1352:D I *D sky130_fd_sc_hd__dfrtp_1
*I *1213:X O *D sky130_fd_sc_hd__mux2_1
*CAP
1 *1352:D 0.000266118
2 *1213:X 0.000266118
3 *1352:D *1247:B2 9.71067e-05
4 *1352:D *110:10 9.54399e-05
*RES
1 *1213:X *1352:D 10.845 
*END

*D_NET *19 0.00110618
*CONN
*I *1353:D I *D sky130_fd_sc_hd__dfrtp_1
*I *1214:X O *D sky130_fd_sc_hd__mux2_1
*CAP
1 *1353:D 0.000414921
2 *1214:X 0.000414921
3 *1353:D *86:37 0.000238919
4 *1353:D *110:10 0
5 *1353:D *175:64 1.73858e-05
6 *1353:D *175:68 9.60582e-07
7 *1353:D *206:28 1.90762e-05
8 *1353:D *206:34 0
*RES
1 *1214:X *1353:D 12.57 
*END

*D_NET *20 0.000416643
*CONN
*I *1354:D I *D sky130_fd_sc_hd__dfrtp_1
*I *1215:X O *D sky130_fd_sc_hd__mux2_1
*CAP
1 *1354:D 0.000116202
2 *1215:X 0.000116202
3 *1354:D *1344:A0 2.25075e-05
4 *1354:D *1422:A 8.49205e-05
5 *1354:D *106:47 6.73074e-05
6 *1354:D *111:34 9.50342e-06
7 *1354:D *207:51 0
*RES
1 *1215:X *1354:D 9.375 
*END

*D_NET *21 0.000454852
*CONN
*I *1355:D I *D sky130_fd_sc_hd__dfrtp_1
*I *1216:X O *D sky130_fd_sc_hd__mux2_1
*CAP
1 *1355:D 0.000149498
2 *1216:X 0.000149498
3 *1355:D *1216:S 5.02217e-05
4 *1355:D *1355:CLK 5.83121e-06
5 *1355:D *1427:A 2.75229e-05
6 *1355:D *87:17 3.54025e-05
7 *1355:D *189:8 3.68769e-05
*RES
1 *1216:X *1355:D 9.915 
*END

*D_NET *22 0.000333194
*CONN
*I *1356:D I *D sky130_fd_sc_hd__dfrtp_1
*I *1244:X O *D sky130_fd_sc_hd__a22o_1
*CAP
1 *1356:D 0.000103094
2 *1244:X 0.000103094
3 *1356:D *1244:B2 0.000127005
*RES
1 *1244:X *1356:D 4.61375 
*END

*D_NET *23 0.000943642
*CONN
*I *1357:D I *D sky130_fd_sc_hd__dfrtp_1
*I *1255:X O *D sky130_fd_sc_hd__a22o_1
*CAP
1 *1357:D 0.000330222
2 *1255:X 0.000330222
3 *1357:D *1255:A2 0.000141599
4 *1357:D *186:66 0.000141599
*RES
1 *1255:X *1357:D 12.735 
*END

*D_NET *24 0.000792557
*CONN
*I *1358:D I *D sky130_fd_sc_hd__dfrtp_1
*I *1266:X O *D sky130_fd_sc_hd__a22o_1
*CAP
1 *1358:D 0.000370102
2 *1266:X 0.000370102
3 *1358:D *1223:A1 1.54837e-05
4 *1358:D *1376:D 0
5 *1358:D *255:16 3.68695e-05
*RES
1 *1266:X *1358:D 11.79 
*END

*D_NET *25 0.000423052
*CONN
*I *1359:D I *D sky130_fd_sc_hd__dfrtp_1
*I *1276:X O *D sky130_fd_sc_hd__mux2_1
*CAP
1 *1359:D 0.000173478
2 *1276:X 0.000173478
3 *1359:D *1266:A2 0
4 *1359:D *1276:A1 7.60965e-05
*RES
1 *1276:X *1359:D 9.72 
*END

*D_NET *26 0.000394454
*CONN
*I *1360:D I *D sky130_fd_sc_hd__dfrtp_1
*I *1278:X O *D sky130_fd_sc_hd__mux2_1
*CAP
1 *1360:D 0.00017371
2 *1278:X 0.00017371
3 *1360:D *1281:S 0
4 *1360:D *185:25 4.70343e-05
*RES
1 *1278:X *1360:D 10.065 
*END

*D_NET *27 0.0002461
*CONN
*I *1361:D I *D sky130_fd_sc_hd__dfrtp_1
*I *1279:X O *D sky130_fd_sc_hd__mux2_1
*CAP
1 *1361:D 9.07506e-05
2 *1279:X 9.07506e-05
3 *1361:D *1254:A1 9.50342e-06
4 *1361:D *1425:A 4.65643e-05
5 *1361:D *1451:A 0
6 *1361:D *204:164 8.53113e-06
*RES
1 *1279:X *1361:D 8.775 
*END

*D_NET *28 0.000819689
*CONN
*I *1362:D I *D sky130_fd_sc_hd__dfrtp_1
*I *1280:X O *D sky130_fd_sc_hd__mux2_1
*CAP
1 *1362:D 0.000267706
2 *1280:X 0.000267706
3 *1362:D *1275:B2 6.55328e-05
4 *1362:D *1280:A1 0
5 *1362:D *185:52 0.000123304
6 *1362:D *186:76 9.54399e-05
*RES
1 *1280:X *1362:D 12.48 
*END

*D_NET *29 0.00104508
*CONN
*I *1363:D I *D sky130_fd_sc_hd__dfrtp_1
*I *1281:X O *D sky130_fd_sc_hd__mux2_1
*CAP
1 *1363:D 0.000375306
2 *1281:X 0.000375306
3 *1363:D *1281:A1 0.000203178
4 *1363:D *1281:S 5.73739e-05
5 *1363:D *185:52 0
6 *1363:D *195:52 3.39151e-05
*RES
1 *1281:X *1363:D 12.225 
*END

*D_NET *30 0.000428898
*CONN
*I *1364:D I *D sky130_fd_sc_hd__dfrtp_1
*I *1283:X O *D sky130_fd_sc_hd__mux2_1
*CAP
1 *1364:D 8.9076e-05
2 *1283:X 8.9076e-05
3 *1364:D *1278:A0 9.54469e-05
4 *1364:D *1282:B 0.00011584
5 *1364:D *1285:S 3.94592e-05
6 *1364:D *1356:CLK 0
*RES
1 *1283:X *1364:D 9.465 
*END

*D_NET *31 0.000595662
*CONN
*I *1365:D I *D sky130_fd_sc_hd__dfrtp_1
*I *1284:X O *D sky130_fd_sc_hd__mux2_1
*CAP
1 *1365:D 0.000142525
2 *1284:X 0.000142525
3 *1365:D *1319:A0 7.35729e-05
4 *1365:D *1365:RESET_B 0.00011852
5 *1365:D *1425:A 0.00011852
*RES
1 *1284:X *1365:D 10.41 
*END

*D_NET *32 0.000730242
*CONN
*I *1366:D I *D sky130_fd_sc_hd__dfrtp_1
*I *1285:X O *D sky130_fd_sc_hd__mux2_1
*CAP
1 *1366:D 0.000193438
2 *1285:X 0.000193438
3 *1366:D *1285:A1 7.06865e-05
4 *1366:D *1290:A0 0.000163199
5 *1366:D *169:33 5.20968e-05
6 *1366:D *171:135 4.47209e-05
7 *1366:D *205:35 1.26626e-05
*RES
1 *1285:X *1366:D 10.5 
*END

*D_NET *33 0.000408271
*CONN
*I *1367:D I *D sky130_fd_sc_hd__dfrtp_1
*I *1286:X O *D sky130_fd_sc_hd__mux2_1
*CAP
1 *1367:D 0.00015567
2 *1286:X 0.00015567
3 *1367:D *1321:S 0
4 *1367:D *102:29 2.75229e-05
5 *1367:D *190:10 4.18603e-06
6 *1367:D *190:16 6.15729e-05
7 *1367:D *207:117 3.64998e-06
*RES
1 *1286:X *1367:D 9.9 
*END

*D_NET *34 0.000472452
*CONN
*I *1368:D I *D sky130_fd_sc_hd__dfrtp_1
*I *1288:X O *D sky130_fd_sc_hd__mux2_1
*CAP
1 *1368:D 0.000153449
2 *1288:X 0.000153449
3 *1368:D *1368:RESET_B 4.70343e-05
4 *1368:D *148:32 0.00011852
*RES
1 *1288:X *1368:D 10.065 
*END

*D_NET *35 0.00112531
*CONN
*I *1369:D I *D sky130_fd_sc_hd__dfrtp_1
*I *1289:X O *D sky130_fd_sc_hd__mux2_1
*CAP
1 *1369:D 0.00040767
2 *1289:X 0.00040767
3 *1369:D *1289:A0 4.82919e-05
4 *1369:D *1305:A0 0.000139575
5 *1369:D *1369:CLK 3.64998e-06
6 *1369:D *182:63 2.97004e-06
7 *1369:D *191:10 0
8 *1369:D *191:43 0.000115484
*RES
1 *1289:X *1369:D 12.78 
*END

*D_NET *36 0.000727662
*CONN
*I *1370:D I *D sky130_fd_sc_hd__dfrtp_1
*I *1290:X O *D sky130_fd_sc_hd__mux2_1
*CAP
1 *1370:D 0.000303136
2 *1290:X 0.000303136
3 *1370:D *1257:C1 1.03423e-05
4 *1370:D *1290:S 9.36617e-05
5 *1370:D *1368:CLK 0
6 *1370:D *172:50 1.7386e-05
7 *1370:D *196:77 0
*RES
1 *1290:X *1370:D 11.295 
*END

*D_NET *37 0.000572051
*CONN
*I *1371:D I *D sky130_fd_sc_hd__dfrtp_1
*I *1291:X O *D sky130_fd_sc_hd__mux2_1
*CAP
1 *1371:D 0.000286025
2 *1291:X 0.000286025
3 *1371:D *1371:RESET_B 0
4 *1371:D *196:16 0
*RES
1 *1291:X *1371:D 10.755 
*END

*D_NET *38 0.000788177
*CONN
*I *1372:D I *D sky130_fd_sc_hd__dfrtp_1
*I *1293:X O *D sky130_fd_sc_hd__mux2_1
*CAP
1 *1372:D 0.000320984
2 *1293:X 0.000320984
3 *1372:D *1372:CLK 3.89528e-05
4 *1372:D *1456:A 0.000107257
5 *1372:D *173:63 0
*RES
1 *1293:X *1372:D 11.535 
*END

*D_NET *39 0.000973429
*CONN
*I *1373:D I *D sky130_fd_sc_hd__dfrtp_1
*I *1294:X O *D sky130_fd_sc_hd__mux2_1
*CAP
1 *1373:D 0.000345126
2 *1294:X 0.000345126
3 *1373:D *1294:S 0
4 *1373:D *1373:CLK 0.000142661
5 *1373:D *1373:RESET_B 1.81788e-05
6 *1373:D *173:63 0.000122337
*RES
1 *1294:X *1373:D 9.53 
*END

*D_NET *40 0.000910796
*CONN
*I *1374:D I *D sky130_fd_sc_hd__dfrtp_1
*I *1295:X O *D sky130_fd_sc_hd__mux2_1
*CAP
1 *1374:D 0.000341889
2 *1295:X 0.000341889
3 *1374:D *1295:S 6.69341e-05
4 *1374:D *95:42 0
5 *1374:D *182:19 4.18603e-06
6 *1374:D *182:29 3.26735e-05
7 *1374:D *182:33 0.000123225
*RES
1 *1295:X *1374:D 11.88 
*END

*D_NET *41 0.000548754
*CONN
*I *1375:D I *D sky130_fd_sc_hd__dfrtp_1
*I *1296:X O *D sky130_fd_sc_hd__mux2_1
*CAP
1 *1375:D 9.69085e-05
2 *1296:X 9.69085e-05
3 *1375:D *1241:D1 0.00011577
4 *1375:D *95:42 4.40812e-05
5 *1375:D *99:55 7.89269e-05
6 *1375:D *202:8 0.000116158
*RES
1 *1296:X *1375:D 10.41 
*END

*D_NET *42 0.000854174
*CONN
*I *1376:D I *D sky130_fd_sc_hd__dfrtp_1
*I *1298:X O *D sky130_fd_sc_hd__mux2_1
*CAP
1 *1376:D 0.000215955
2 *1298:X 0.000215955
3 *1376:D *1301:A0 7.35729e-05
4 *1376:D *1376:CLK 0.000253946
5 *1376:D *195:12 9.47454e-05
6 *1358:D *1376:D 0
*RES
1 *1298:X *1376:D 12.48 
*END

*D_NET *43 0.000539934
*CONN
*I *1377:D I *D sky130_fd_sc_hd__dfrtp_1
*I *1299:X O *D sky130_fd_sc_hd__mux2_1
*CAP
1 *1377:D 0.00015109
2 *1299:X 0.00015109
3 *1377:D *1299:A0 9.02174e-05
4 *1377:D *150:18 5.20968e-05
5 *1377:D *191:90 9.54399e-05
*RES
1 *1299:X *1377:D 9.81 
*END

*D_NET *44 0.000241907
*CONN
*I *1378:D I *D sky130_fd_sc_hd__dfrtp_1
*I *1300:X O *D sky130_fd_sc_hd__mux2_1
*CAP
1 *1378:D 2.38467e-05
2 *1300:X 2.38467e-05
3 *1378:D *176:28 9.71067e-05
4 *1378:D *208:54 9.71067e-05
*RES
1 *1300:X *1378:D 8.325 
*END

*D_NET *45 0.000453554
*CONN
*I *1379:D I *D sky130_fd_sc_hd__dfrtp_1
*I *1301:X O *D sky130_fd_sc_hd__mux2_1
*CAP
1 *1379:D 0.000226777
2 *1301:X 0.000226777
*RES
1 *1301:X *1379:D 10.065 
*END

*D_NET *46 0.000368376
*CONN
*I *1380:D I *D sky130_fd_sc_hd__dfrtp_1
*I *1303:X O *D sky130_fd_sc_hd__mux2_1
*CAP
1 *1380:D 0.000143898
2 *1303:X 0.000143898
3 *1380:D *1236:C 3.17252e-05
4 *1380:D *1445:A 4.8854e-05
*RES
1 *1303:X *1380:D 9.12 
*END

*D_NET *47 0.000930308
*CONN
*I *1381:D I *D sky130_fd_sc_hd__dfrtp_1
*I *1304:X O *D sky130_fd_sc_hd__mux2_1
*CAP
1 *1381:D 0.00029515
2 *1304:X 0.00029515
3 *1381:D *1238:B 0.000137454
4 *1381:D *1435:A 0.00011852
5 *1381:D *1455:A 4.61744e-05
6 *1381:D *209:6 4.05674e-06
7 *1381:D *209:25 3.38041e-05
*RES
1 *1304:X *1381:D 11.79 
*END

*D_NET *48 0.000672471
*CONN
*I *1382:D I *D sky130_fd_sc_hd__dfrtp_1
*I *1305:X O *D sky130_fd_sc_hd__mux2_1
*CAP
1 *1382:D 0.000274669
2 *1305:X 0.000274669
3 *1382:D *196:16 5.34747e-05
4 *1382:D *196:26 6.96579e-05
*RES
1 *1305:X *1382:D 11.1 
*END

*D_NET *49 0.000953114
*CONN
*I *1383:D I *D sky130_fd_sc_hd__dfrtp_1
*I *1306:X O *D sky130_fd_sc_hd__mux2_1
*CAP
1 *1383:D 0.00039326
2 *1306:X 0.00039326
3 *1383:D *1383:RESET_B 0.000154601
4 *1383:D *262:6 1.19928e-05
*RES
1 *1306:X *1383:D 9.53 
*END

*D_NET *50 0.000998806
*CONN
*I *1384:D I *D sky130_fd_sc_hd__dfrtp_1
*I *1308:X O *D sky130_fd_sc_hd__mux2_1
*CAP
1 *1384:D 0.000342128
2 *1308:X 0.000342128
3 *1384:D *1384:RESET_B 2.20753e-05
4 *1384:D *176:28 0
5 *1384:D *182:47 9.07793e-05
6 *1384:D *182:57 0.000195863
7 *1384:D *248:8 5.83121e-06
*RES
1 *1308:X *1384:D 9.875 
*END

*D_NET *51 0.000889493
*CONN
*I *1385:D I *D sky130_fd_sc_hd__dfrtp_1
*I *1309:X O *D sky130_fd_sc_hd__mux2_1
*CAP
1 *1385:D 0.000269833
2 *1309:X 0.000269833
3 *1385:D *1292:A 3.68682e-05
4 *1385:D *173:101 0.000312958
*RES
1 *1309:X *1385:D 11.19 
*END

*D_NET *52 0.000988265
*CONN
*I *1386:D I *D sky130_fd_sc_hd__dfrtp_1
*I *1310:X O *D sky130_fd_sc_hd__mux2_1
*CAP
1 *1386:D 0.000363138
2 *1310:X 0.000363138
3 *1386:D *1267:B1 0
4 *1386:D *1306:S 9.16019e-05
5 *1386:D *172:35 0.000170387
*RES
1 *1310:X *1386:D 12.225 
*END

*D_NET *53 0.000472481
*CONN
*I *1387:D I *D sky130_fd_sc_hd__dfrtp_1
*I *1311:X O *D sky130_fd_sc_hd__mux2_1
*CAP
1 *1387:D 0.000150276
2 *1311:X 0.000150276
3 *1387:D *146:44 0.000124895
4 *1387:D *183:61 4.70343e-05
5 *1387:D *250:10 0
*RES
1 *1311:X *1387:D 9.72 
*END

*D_NET *54 0.000970351
*CONN
*I *1388:D I *D sky130_fd_sc_hd__dfrtp_1
*I *1313:X O *D sky130_fd_sc_hd__mux2_1
*CAP
1 *1388:D 0.000328176
2 *1313:X 0.000328176
3 *1388:D *1282:A 0.000120655
4 *1388:D *171:125 3.59997e-05
5 *1388:D *194:32 0.000157343
6 *1388:D *205:19 0
*RES
1 *1313:X *1388:D 11.88 
*END

*D_NET *55 0.00114129
*CONN
*I *1389:D I *D sky130_fd_sc_hd__dfrtp_1
*I *1314:X O *D sky130_fd_sc_hd__mux2_1
*CAP
1 *1389:D 0.00031047
2 *1314:X 0.00031047
3 *1389:D *1242:C 0
4 *1389:D *1253:B 0.000393024
5 *1389:D *1270:A1 9.50342e-06
6 *1389:D *1316:A1 0.000117825
*RES
1 *1314:X *1389:D 12.135 
*END

*D_NET *56 0.00107216
*CONN
*I *1390:D I *D sky130_fd_sc_hd__dfrtp_1
*I *1315:X O *D sky130_fd_sc_hd__mux2_1
*CAP
1 *1390:D 0.000227514
2 *1315:X 0.000227514
3 *1390:D *1275:B2 0.000106259
4 *1390:D *1315:A0 0.00019844
5 *1390:D *1315:A1 3.20109e-05
6 *1390:D *1316:S 3.09233e-05
7 *1390:D *88:27 0.000114611
8 *1390:D *172:67 4.82863e-05
9 *1390:D *205:35 8.65961e-05
*RES
1 *1315:X *1390:D 16.63 
*END

*D_NET *57 0.000971148
*CONN
*I *1391:D I *D sky130_fd_sc_hd__dfrtp_1
*I *1316:X O *D sky130_fd_sc_hd__mux2_1
*CAP
1 *1391:D 0.000324068
2 *1316:X 0.000324068
3 *1391:D *1316:A0 0.000115779
4 *1391:D *1320:A0 2.66935e-05
5 *1391:D *1320:S 0
6 *1391:D *169:12 0.000180541
*RES
1 *1316:X *1391:D 12.96 
*END

*D_NET *58 0.000514066
*CONN
*I *1392:D I *D sky130_fd_sc_hd__dfrtp_1
*I *1318:X O *D sky130_fd_sc_hd__mux2_1
*CAP
1 *1392:D 7.32659e-05
2 *1318:X 7.32659e-05
3 *1392:D *1252:A2 9.30717e-05
4 *1392:D *1409:CLK 9.30717e-05
5 *1392:D *190:49 6.33103e-05
6 *1392:D *271:8 0.000118081
*RES
1 *1318:X *1392:D 9.465 
*END

*D_NET *59 0.000365851
*CONN
*I *1393:D I *D sky130_fd_sc_hd__dfrtp_1
*I *1319:X O *D sky130_fd_sc_hd__mux2_1
*CAP
1 *1393:D 6.48705e-05
2 *1319:X 6.48705e-05
3 *1393:D *1252:D1 9.30787e-05
4 *1393:D *1253:C 9.47454e-05
5 *1393:D *1319:A0 4.82863e-05
*RES
1 *1319:X *1393:D 8.775 
*END

*D_NET *60 0.000429796
*CONN
*I *1394:D I *D sky130_fd_sc_hd__dfrtp_1
*I *1320:X O *D sky130_fd_sc_hd__mux2_1
*CAP
1 *1394:D 0.000170106
2 *1320:X 0.000170106
3 *1394:D *1320:A1 4.29016e-05
4 *1394:D *194:87 4.66826e-05
*RES
1 *1320:X *1394:D 5.39 
*END

*D_NET *61 0.000844478
*CONN
*I *1395:D I *D sky130_fd_sc_hd__dfrtp_1
*I *1321:X O *D sky130_fd_sc_hd__mux2_1
*CAP
1 *1395:D 0.000246713
2 *1321:X 0.000246713
3 *1395:D *1274:D1 0.000232999
4 *1395:D *1367:RESET_B 0
5 *1395:D *207:78 8.53113e-06
6 *1395:D *207:104 0.000109522
*RES
1 *1321:X *1395:D 10.755 
*END

*D_NET *62 0.000522336
*CONN
*I *1396:D I *D sky130_fd_sc_hd__dfrtp_1
*I *1323:X O *D sky130_fd_sc_hd__mux2_1
*CAP
1 *1396:D 0.000261168
2 *1323:X 0.000261168
3 *1396:D *153:12 0
*RES
1 *1323:X *1396:D 10.41 
*END

*D_NET *63 0.000849741
*CONN
*I *1397:D I *D sky130_fd_sc_hd__dfrtp_1
*I *1324:X O *D sky130_fd_sc_hd__mux2_1
*CAP
1 *1397:D 0.000401354
2 *1324:X 0.000401354
3 *1397:D *1435:A 4.70343e-05
4 *1397:D *188:20 0
*RES
1 *1324:X *1397:D 12.135 
*END

*D_NET *64 0.000592776
*CONN
*I *1398:D I *D sky130_fd_sc_hd__dfrtp_1
*I *1325:X O *D sky130_fd_sc_hd__mux2_1
*CAP
1 *1398:D 0.000296388
2 *1325:X 0.000296388
3 *1398:D *1325:A0 0
*RES
1 *1325:X *1398:D 11.7 
*END

*D_NET *65 0.000567503
*CONN
*I *1399:D I *D sky130_fd_sc_hd__dfrtp_1
*I *1326:X O *D sky130_fd_sc_hd__mux2_1
*CAP
1 *1399:D 0.000168654
2 *1326:X 0.000168654
3 *1399:D *1399:RESET_B 9.28507e-05
4 *1399:D *1421:A 0.000116853
5 *1399:D *188:47 2.04923e-05
*RES
1 *1326:X *1399:D 10.515 
*END

*D_NET *66 0.000388187
*CONN
*I *1400:D I *D sky130_fd_sc_hd__dfrtp_1
*I *1328:X O *D sky130_fd_sc_hd__mux2_1
*CAP
1 *1400:D 0.000126877
2 *1328:X 0.000126877
3 *1400:D *1328:A0 0
4 *1400:D *1402:CLK 4.61658e-05
5 *1400:D *1426:A 8.8266e-05
*RES
1 *1328:X *1400:D 9.375 
*END

*D_NET *67 0.000559392
*CONN
*I *1401:D I *D sky130_fd_sc_hd__dfrtp_1
*I *1329:X O *D sky130_fd_sc_hd__mux2_1
*CAP
1 *1401:D 0.000121633
2 *1329:X 0.000121633
3 *1401:D *1252:A1 3.09233e-05
4 *1401:D *1329:A1 7.06865e-05
5 *1401:D *104:44 9.30787e-05
6 *1401:D *156:16 0.000121437
*RES
1 *1329:X *1401:D 9.465 
*END

*D_NET *68 0.00099737
*CONN
*I *1402:D I *D sky130_fd_sc_hd__dfrtp_1
*I *1330:X O *D sky130_fd_sc_hd__mux2_1
*CAP
1 *1402:D 0.000362267
2 *1330:X 0.000362267
3 *1402:D *1330:A1 0.000203178
4 *1402:D *1330:S 6.96579e-05
*RES
1 *1330:X *1402:D 12.225 
*END

*D_NET *69 0.000474075
*CONN
*I *1403:D I *D sky130_fd_sc_hd__dfrtp_1
*I *1331:X O *D sky130_fd_sc_hd__mux2_1
*CAP
1 *1403:D 0.000189665
2 *1331:X 0.000189665
3 *1403:D *1271:A1 0
4 *1403:D *1271:B2 9.47454e-05
*RES
1 *1331:X *1403:D 9.81 
*END

*D_NET *70 0.00210593
*CONN
*I *1404:D I *D sky130_fd_sc_hd__dfrtp_1
*I *1333:X O *D sky130_fd_sc_hd__mux2_1
*CAP
1 *1404:D 0.000624907
2 *1333:X 0.000624907
3 *1404:D *1323:A0 0.000423637
4 *1404:D *1323:A1 0
5 *1404:D *1404:CLK 0.000267972
6 *1404:D *1412:D 9.30787e-05
7 *1404:D *187:44 7.14241e-05
*RES
1 *1333:X *1404:D 16.89 
*END

*D_NET *71 0.000699185
*CONN
*I *1405:D I *D sky130_fd_sc_hd__dfrtp_1
*I *1334:X O *D sky130_fd_sc_hd__mux2_1
*CAP
1 *1405:D 0.000228851
2 *1334:X 0.000228851
3 *1405:D *107:26 0
4 *1405:D *175:70 0
5 *1405:D *207:18 0.000241483
*RES
1 *1334:X *1405:D 10.5 
*END

*D_NET *72 0.000516874
*CONN
*I *1406:D I *D sky130_fd_sc_hd__dfrtp_1
*I *1335:X O *D sky130_fd_sc_hd__mux2_1
*CAP
1 *1406:D 0.000105789
2 *1335:X 0.000105789
3 *1406:D *1407:CLK 0
4 *1406:D *189:27 0
5 *1406:D *189:53 6.6925e-05
6 *1406:D *207:45 9.91257e-05
7 *1406:D *207:51 0.000139245
*RES
1 *1335:X *1406:D 10.32 
*END

*D_NET *73 0.000511576
*CONN
*I *1407:D I *D sky130_fd_sc_hd__dfrtp_1
*I *1336:X O *D sky130_fd_sc_hd__mux2_1
*CAP
1 *1407:D 0.000255788
2 *1336:X 0.000255788
3 *1407:D *1330:A0 0
4 *1407:D *1336:A0 0
*RES
1 *1336:X *1407:D 10.41 
*END

*D_NET *74 0.00104708
*CONN
*I *1408:D I *D sky130_fd_sc_hd__dfrtp_1
*I *1338:X O *D sky130_fd_sc_hd__mux2_1
*CAP
1 *1408:D 0.000325354
2 *1338:X 0.000325354
3 *1408:D *1338:S 0.000215463
4 *1408:D *175:29 0.000116158
5 *1408:D *206:115 6.47516e-05
*RES
1 *1338:X *1408:D 12.135 
*END

*D_NET *75 0.000500072
*CONN
*I *1409:D I *D sky130_fd_sc_hd__dfrtp_1
*I *1339:X O *D sky130_fd_sc_hd__mux2_1
*CAP
1 *1409:D 0.000122823
2 *1339:X 0.000122823
3 *1409:D *1339:A1 4.70343e-05
4 *1409:D *1425:A 0.00011852
5 *1409:D *180:25 8.88715e-05
*RES
1 *1339:X *1409:D 10.065 
*END

*D_NET *76 0.0011525
*CONN
*I *1410:D I *D sky130_fd_sc_hd__dfrtp_1
*I *1340:X O *D sky130_fd_sc_hd__mux2_1
*CAP
1 *1410:D 0.000325506
2 *1340:X 0.000325506
3 *1410:D *111:34 0.000385333
4 *1410:D *156:29 0.000116158
5 *1410:D *189:101 0
*RES
1 *1340:X *1410:D 12.135 
*END

*D_NET *77 0.000802748
*CONN
*I *1411:D I *D sky130_fd_sc_hd__dfrtp_1
*I *1341:X O *D sky130_fd_sc_hd__mux2_1
*CAP
1 *1411:D 0.0002418
2 *1341:X 0.0002418
3 *1411:D *1250:C1 4.82863e-05
4 *1411:D *1274:C1 0
5 *1411:D *1411:RESET_B 5.83121e-06
6 *1411:D *103:35 0.000122749
7 *1411:D *171:125 0.000142281
*RES
1 *1341:X *1411:D 11.79 
*END

*D_NET *78 0.000976186
*CONN
*I *1412:D I *D sky130_fd_sc_hd__dfrtp_1
*I *1343:X O *D sky130_fd_sc_hd__mux2_1
*CAP
1 *1412:D 0.000344161
2 *1343:X 0.000344161
3 *1412:D *1323:A1 0
4 *1412:D *1404:RESET_B 0.000194786
5 *1404:D *1412:D 9.30787e-05
*RES
1 *1343:X *1412:D 11.88 
*END

*D_NET *79 0.000429041
*CONN
*I *1413:D I *D sky130_fd_sc_hd__dfrtp_1
*I *1344:X O *D sky130_fd_sc_hd__mux2_1
*CAP
1 *1413:D 0.000132757
2 *1344:X 0.000132757
3 *1413:D *1269:B2 0
4 *1413:D *110:59 9.66021e-05
5 *1413:D *111:34 6.6925e-05
6 *1413:D *187:78 0
*RES
1 *1344:X *1413:D 10.065 
*END

*D_NET *80 0.000265791
*CONN
*I *1414:D I *D sky130_fd_sc_hd__dfrtp_1
*I *1345:X O *D sky130_fd_sc_hd__mux2_1
*CAP
1 *1414:D 9.30859e-05
2 *1345:X 9.30859e-05
3 *1414:D *1345:A1 0
4 *1414:D *1407:CLK 5.20968e-05
5 *1414:D *177:12 2.75229e-05
*RES
1 *1345:X *1414:D 8.775 
*END

*D_NET *81 0.00065678
*CONN
*I *1415:D I *D sky130_fd_sc_hd__dfrtp_1
*I *1346:X O *D sky130_fd_sc_hd__mux2_1
*CAP
1 *1415:D 0.000228955
2 *1346:X 0.000228955
3 *1415:D *187:78 0.000117825
4 *1415:D *207:18 8.10455e-05
*RES
1 *1346:X *1415:D 10.755 
*END

*D_NET *82 0.00040693
*CONN
*I *1416:D I *D sky130_fd_sc_hd__dfrtp_1
*I *1348:X O *D sky130_fd_sc_hd__mux2_1
*CAP
1 *1416:D 0.000117232
2 *1348:X 0.000117232
3 *1416:D *1261:A2 4.75991e-05
4 *1416:D *1348:A0 2.56752e-06
5 *1416:D *1416:CLK 2.68526e-05
6 *1416:D *153:42 9.54469e-05
*RES
1 *1348:X *1416:D 9.225 
*END

*D_NET *83 0.000866011
*CONN
*I *1417:D I *D sky130_fd_sc_hd__dfrtp_1
*I *1349:X O *D sky130_fd_sc_hd__mux2_1
*CAP
1 *1417:D 0.000430913
2 *1349:X 0.000430913
3 *1417:D *1435:A 0
4 *1417:D *188:20 4.18603e-06
*RES
1 *1349:X *1417:D 12.135 
*END

*D_NET *84 0.000778782
*CONN
*I *1418:D I *D sky130_fd_sc_hd__dfrtp_1
*I *1350:X O *D sky130_fd_sc_hd__mux2_1
*CAP
1 *1418:D 0.000314694
2 *1350:X 0.000314694
3 *1418:D *1418:CLK 3.89528e-05
4 *1418:D *1435:A 0.000110441
*RES
1 *1350:X *1418:D 11.535 
*END

*D_NET *85 0.000988887
*CONN
*I *1419:D I *D sky130_fd_sc_hd__dfrtp_1
*I *1351:X O *D sky130_fd_sc_hd__mux2_1
*CAP
1 *1419:D 0.000311023
2 *1351:X 0.000311023
3 *1419:D *109:41 2.49909e-05
4 *1419:D *173:22 0.00034185
*RES
1 *1351:X *1419:D 9.53 
*END

*D_NET *86 0.00874112
*CONN
*I *1273:A2 I *D sky130_fd_sc_hd__a221o_1
*I *1212:B I *D sky130_fd_sc_hd__nand2_1
*I *1262:A2 I *D sky130_fd_sc_hd__a221o_1
*I *1248:A2 I *D sky130_fd_sc_hd__a22o_1
*I *1227:A2 I *D sky130_fd_sc_hd__a221o_1
*I *1211:X O *D sky130_fd_sc_hd__and4_1
*CAP
1 *1273:A2 0.000566081
2 *1212:B 1.36534e-05
3 *1262:A2 0.000299542
4 *1248:A2 0
5 *1227:A2 0.000415378
6 *1211:X 0.000158107
7 *86:37 0.000693311
8 *86:27 0.000578991
9 *86:25 0.000896498
10 *86:6 0.000732333
11 *1212:B *1212:A 4.66108e-05
12 *1212:B *1213:S 4.66108e-05
13 *1227:A2 *1224:B_N 3.31282e-05
14 *1227:A2 *1227:B2 6.7053e-05
15 *1227:A2 *1445:A 7.17811e-05
16 *1227:A2 *95:18 1.16578e-05
17 *1227:A2 *95:33 8.18542e-05
18 *1227:A2 *197:105 4.43871e-06
19 *1227:A2 *198:12 5.21143e-05
20 *1227:A2 *202:16 1.91597e-05
21 *1227:A2 *209:98 3.84487e-05
22 *1227:A2 *210:29 7.47215e-05
23 *1227:A2 *210:52 0.000118081
24 *1262:A2 *1215:A1 0.000136884
25 *1262:A2 *1250:C1 4.77719e-05
26 *1262:A2 *1262:A1 0.00022428
27 *1262:A2 *1262:B1 0
28 *1262:A2 *1264:C 1.34361e-05
29 *1262:A2 *1355:RESET_B 4.49498e-05
30 *1262:A2 *171:81 0.000322215
31 *1262:A2 *179:56 1.82476e-05
32 *1262:A2 *206:28 0.000122435
33 *1273:A2 *1273:B1 0.000177525
34 *1273:A2 *1321:A1 3.69993e-05
35 *1273:A2 *201:92 0.000535991
36 *86:6 *210:52 0.000224698
37 *86:25 *1269:B2 0.000251317
38 *86:25 *1454:A 0
39 *86:27 *1269:B2 0.000303559
40 *86:27 *1454:A 0
41 *86:37 *1248:A1 0.00024397
42 *86:37 *1248:B2 0.000311288
43 *86:37 *1269:B2 0.000226834
44 *86:37 *1454:A 0
45 *86:37 *206:28 0.000240249
46 *1353:D *86:37 0.000238919
*RES
1 *1211:X *86:6 3.775 
2 *86:6 *1227:A2 12.1025 
3 *86:6 *86:25 5.165 
4 *86:25 *86:27 3.675 
5 *86:27 *86:37 11.78 
6 *86:37 *1248:A2 1.6 
7 *86:37 *1262:A2 12.9875 
8 *86:27 *1212:B 4.05 
9 *86:25 *1273:A2 13.4137 
*END

*D_NET *87 0.00331608
*CONN
*I *1216:S I *D sky130_fd_sc_hd__mux2_1
*I *1214:S I *D sky130_fd_sc_hd__mux2_1
*I *1215:S I *D sky130_fd_sc_hd__mux2_1
*I *1213:S I *D sky130_fd_sc_hd__mux2_1
*I *1212:Y O *D sky130_fd_sc_hd__nand2_1
*CAP
1 *1216:S 0.000158807
2 *1214:S 0
3 *1215:S 0.000295872
4 *1213:S 0.000105485
5 *1212:Y 0
6 *87:19 0.000361396
7 *87:17 0.000582282
8 *87:4 0.000463435
9 *1213:S *1212:A 1.91597e-05
10 *1215:S *1214:A0 1.26548e-05
11 *1215:S *1215:A0 4.66742e-05
12 *1215:S *1410:RESET_B 1.34594e-05
13 *1215:S *1422:A 0.000355022
14 *1215:S *106:35 9.50342e-06
15 *1215:S *106:47 0
16 *1215:S *189:21 0
17 *1215:S *240:12 7.06865e-05
18 *1216:S *1216:A0 8.8266e-05
19 *1216:S *1273:C1 0.00011577
20 *1216:S *1427:A 3.09233e-05
21 *1216:S *1454:A 0
22 *1216:S *106:35 0.000255338
23 *1216:S *189:8 0
24 *1216:S *189:21 0
25 *87:17 *1212:A 1.17409e-05
26 *87:17 *1355:CLK 7.35813e-05
27 *87:19 *106:35 0.00011379
28 *87:19 *189:21 0
29 *1212:B *1213:S 4.66108e-05
30 *1355:D *1216:S 5.02217e-05
31 *1355:D *87:17 3.54025e-05
*RES
1 *1212:Y *87:4 1.6 
2 *87:4 *1213:S 3.355 
3 *87:4 *87:17 6.245 
4 *87:17 *87:19 1.38 
5 *87:19 *1215:S 9.765 
6 *87:19 *1214:S 3.6 
7 *87:17 *1216:S 8.34 
*END

*D_NET *88 0.00867524
*CONN
*I *1219:A2 I *D sky130_fd_sc_hd__a22o_1
*I *1250:A2 I *D sky130_fd_sc_hd__a221o_1
*I *1270:A2 I *D sky130_fd_sc_hd__a221o_1
*I *1312:B I *D sky130_fd_sc_hd__nand2_1
*I *1259:A2 I *D sky130_fd_sc_hd__a221o_1
*I *1217:X O *D sky130_fd_sc_hd__and4b_2
*CAP
1 *1219:A2 0.000207796
2 *1250:A2 0.00037645
3 *1270:A2 5.83843e-05
4 *1312:B 0
5 *1259:A2 0
6 *1217:X 0.00033257
7 *88:42 0.000772549
8 *88:36 0.000557572
9 *88:27 0.00027073
10 *88:12 0.00059124
11 *1219:A2 *1275:B2 0.000347364
12 *1219:A2 *1281:A0 0.000354222
13 *1219:A2 *1285:S 0.000155458
14 *1219:A2 *1364:CLK 0.000123225
15 *1219:A2 *169:33 0.000575172
16 *1219:A2 *171:135 8.23457e-05
17 *1250:A2 *1250:A1 1.88937e-05
18 *1250:A2 *1250:B2 7.63111e-05
19 *1250:A2 *1253:A 0
20 *1250:A2 *1254:A2 0.00024398
21 *1270:A2 *1241:D1 3.84487e-05
22 *1270:A2 *1270:A1 0.000206307
23 *1270:A2 *1281:A0 3.68705e-05
24 *1270:A2 *171:125 7.06865e-05
25 *88:12 *1220:B 8.53113e-06
26 *88:12 *1254:A2 0
27 *88:12 *1259:A1 2.91399e-05
28 *88:12 *1394:RESET_B 9.78082e-05
29 *88:12 *92:10 3.90266e-05
30 *88:12 *92:27 0.000184082
31 *88:12 *92:36 5.53249e-06
32 *88:12 *97:35 0
33 *88:12 *172:67 1.02931e-05
34 *88:12 *184:89 0.000172544
35 *88:27 *1259:A1 0.000142773
36 *88:27 *1312:A 0
37 *88:27 *1316:S 4.82919e-05
38 *88:27 *151:8 8.65905e-05
39 *88:27 *172:67 0.000168628
40 *88:27 *205:35 0.000316254
41 *88:36 *151:8 3.57349e-05
42 *88:36 *205:35 4.66108e-05
43 *88:42 *1254:A2 0.000118081
44 *88:42 *1275:B2 0.000777902
45 *88:42 *1281:A0 0.000776229
46 *1390:D *88:27 0.000114611
*RES
1 *1217:X *88:12 13.8875 
2 *88:12 *1259:A2 1.6 
3 *88:12 *88:27 7.6425 
4 *88:27 *1312:B 1.6 
5 *88:27 *88:36 2.45 
6 *88:36 *88:42 12.17 
7 *88:42 *1270:A2 7.8575 
8 *88:42 *1250:A2 6.83875 
9 *88:36 *1219:A2 13.065 
*END

*D_NET *89 0.00570174
*CONN
*I *1270:B1 I *D sky130_fd_sc_hd__a221o_1
*I *1249:A2 I *D sky130_fd_sc_hd__a22o_1
*I *1470:A I *D sky130_fd_sc_hd__clkbuf_2
*I *1218:Y O *D sky130_fd_sc_hd__nor4b_1
*CAP
1 *1270:B1 6.0596e-05
2 *1249:A2 0.000755769
3 *1470:A 0
4 *1218:Y 0.00047754
5 *89:25 0.00125163
6 *89:12 0.000912807
7 *1249:A2 *1242:C 0.000196376
8 *1249:A2 *1249:B1 5.59676e-05
9 *1249:A2 *1252:C1 0.00027209
10 *1249:A2 *1270:B2 0.000119221
11 *1249:A2 *1274:D1 3.03684e-05
12 *1249:A2 *1275:B2 0.000373479
13 *1249:A2 *1286:A1 0.000156828
14 *1249:A2 *1317:A 4.66108e-05
15 *1249:A2 *1317:B 4.82919e-05
16 *1249:A2 *1321:S 0
17 *1249:A2 *1367:RESET_B 1.74678e-05
18 *1249:A2 *102:37 0.000126575
19 *1249:A2 *152:8 1.34503e-05
20 *1270:B1 *1241:D1 1.56428e-05
21 *1270:B1 *1270:B2 8.69088e-05
22 *1270:B1 *1275:B2 9.37731e-05
23 *89:12 *1217:A_N 1.85674e-05
24 *89:12 *1218:C 3.00381e-05
25 *89:12 *1232:B 2.46298e-05
26 *89:12 *169:12 8.8266e-05
27 *89:12 *198:38 0.000100213
28 *89:12 *198:45 0.000139511
29 *89:12 *199:53 4.0843e-05
30 *89:25 *152:29 6.0011e-05
31 *89:25 *169:12 8.8266e-05
*RES
1 *1218:Y *89:12 8.65 
2 *89:12 *1470:A 1.6 
3 *89:12 *89:25 7.655 
4 *89:25 *1249:A2 18.855 
5 *89:25 *1270:B1 5.175 
*END

*D_NET *90 0.000589505
*CONN
*I *1242:A I *D sky130_fd_sc_hd__or3_1
*I *1219:X O *D sky130_fd_sc_hd__a22o_1
*CAP
1 *1242:A 0.000114229
2 *1219:X 0.000114229
3 *1242:A *1242:C 0.00011852
4 *1242:A *169:33 0.000124007
5 *1242:A *204:20 0.00011852
*RES
1 *1219:X *1242:A 9.72 
*END

*D_NET *91 0.00163611
*CONN
*I *1232:C I *D sky130_fd_sc_hd__and3_2
*I *1231:B I *D sky130_fd_sc_hd__and3b_2
*I *1221:C I *D sky130_fd_sc_hd__and3b_2
*I *1220:Y O *D sky130_fd_sc_hd__nor2_1
*CAP
1 *1232:C 9.22659e-05
2 *1231:B 5.69919e-05
3 *1221:C 0.000153772
4 *1220:Y 0
5 *91:14 0.000398719
6 *91:4 0.000280221
7 *1221:C *1221:A_N 5.01066e-05
8 *1221:C *1252:B1 0
9 *1221:C *199:80 1.7635e-05
10 *1221:C *201:122 2.05641e-05
11 *1231:B *1258:B1 0.000136398
12 *1231:B *102:10 3.25831e-05
13 *1231:B *199:49 7.47145e-05
14 *1231:B *199:80 0.000100111
15 *1232:C *1221:A_N 1.08758e-05
16 *1232:C *1226:B 7.23533e-05
17 *1232:C *1270:C1 2.8185e-05
18 *1232:C *198:49 3.67779e-05
19 *91:14 *1221:A_N 4.66108e-05
20 *91:14 *1252:B1 0
21 *91:14 *1258:B1 9.58678e-06
22 *91:14 *198:49 1.7635e-05
*RES
1 *1220:Y *91:4 1.6 
2 *91:4 *91:14 3.3953 
3 *91:14 *1221:C 4.97078 
4 *91:14 *1231:B 6.1175 
5 *91:4 *1232:C 7.265 
*END

*D_NET *92 0.008957
*CONN
*I *1223:A2 I *D sky130_fd_sc_hd__a22o_1
*I *1297:B I *D sky130_fd_sc_hd__nand2_2
*I *1268:A2 I *D sky130_fd_sc_hd__a221o_1
*I *1259:B1 I *D sky130_fd_sc_hd__a221o_1
*I *1251:A2 I *D sky130_fd_sc_hd__a221o_1
*I *1221:X O *D sky130_fd_sc_hd__and3b_2
*CAP
1 *1223:A2 0.000171519
2 *1297:B 0
3 *1268:A2 0.000173413
4 *1259:B1 0
5 *1251:A2 0.000452403
6 *1221:X 0.000130801
7 *92:42 0.000418384
8 *92:36 0.000912922
9 *92:27 0.00077576
10 *92:10 0.000862533
11 *1223:A2 *1223:A1 0
12 *1223:A2 *1242:B 4.82863e-05
13 *1223:A2 *1257:B1 0
14 *1223:A2 *1266:B1 0
15 *1223:A2 *204:80 0.000124895
16 *1251:A2 *1251:B2 0
17 *1251:A2 *1253:B 0.000168148
18 *1251:A2 *1437:A 0.000120655
19 *1251:A2 *1438:A 0.000495211
20 *1251:A2 *1449:A 6.3409e-05
21 *1251:A2 *1454:A 8.65961e-05
22 *1251:A2 *1468:A 0.000112349
23 *1251:A2 *166:10 9.17155e-05
24 *1251:A2 *167:31 0.000122331
25 *1251:A2 *208:8 2.49909e-05
26 *1268:A2 *1268:A1 5.00715e-05
27 *1268:A2 *1275:B1 0.000347023
28 *1268:A2 *1288:S 8.49205e-05
29 *1268:A2 *1290:S 1.71013e-05
30 *1268:A2 *146:19 7.36484e-05
31 *1268:A2 *146:44 2.64763e-05
32 *1268:A2 *168:25 1.33285e-05
33 *1268:A2 *196:77 0.000178314
34 *1268:A2 *208:62 0.00023029
35 *92:10 *1217:C 0.000139238
36 *92:10 *1220:B 2.23407e-05
37 *92:10 *1226:C 0.000139238
38 *92:10 *1241:D1 8.23457e-05
39 *92:10 *1258:B1 7.89034e-05
40 *92:10 *1270:C1 8.35106e-05
41 *92:27 *1258:B1 0.000103228
42 *92:27 *1258:B2 0.000183738
43 *92:27 *1259:C1 7.63125e-05
44 *92:27 *1295:A0 0
45 *92:27 *1394:RESET_B 5.66282e-05
46 *92:36 *1257:B1 0
47 *92:36 *1264:A 9.30787e-05
48 *92:36 *1264:B 0
49 *92:36 *1264:C 2.28415e-05
50 *92:36 *1266:B1 0
51 *92:36 *97:35 0
52 *92:36 *172:50 0
53 *92:36 *172:52 0
54 *92:36 *184:89 0
55 *92:36 *257:14 3.86607e-05
56 *92:42 *1431:A 0.000341885
57 *92:42 *186:76 0.000465398
58 *92:42 *204:80 0.000382764
59 *92:42 *204:93 4.07518e-05
60 *88:12 *92:10 3.90266e-05
61 *88:12 *92:27 0.000184082
62 *88:12 *92:36 5.53249e-06
*RES
1 *1221:X *92:10 7.815 
2 *92:10 *1251:A2 14.6925 
3 *92:10 *92:27 7.185 
4 *92:27 *1259:B1 3.6 
5 *92:27 *92:36 8.01 
6 *92:36 *92:42 9.71 
7 *92:42 *1268:A2 11.9375 
8 *92:42 *1297:B 1.6 
9 *92:36 *1223:A2 6.885 
*END

*D_NET *93 0.00548393
*CONN
*I *1475:A I *D sky130_fd_sc_hd__buf_1
*I *1267:A2 I *D sky130_fd_sc_hd__a22o_1
*I *1245:A2 I *D sky130_fd_sc_hd__a22o_1
*I *1222:Y O *D sky130_fd_sc_hd__nor4b_1
*CAP
1 *1475:A 0.000469462
2 *1267:A2 6.20827e-05
3 *1245:A2 3.04062e-05
4 *1222:Y 0.000192359
5 *93:29 0.00107055
6 *93:14 0.000761766
7 *1245:A2 *1293:A0 0.000121817
8 *1245:A2 *173:101 6.90438e-05
9 *1475:A *1268:C1 4.99619e-05
10 *1475:A *1368:CLK 0.000138277
11 *1475:A *1431:A 0.000542783
12 *1475:A *100:50 0
13 *1475:A *183:61 1.03423e-05
14 *93:14 *1222:A 4.82863e-05
15 *93:14 *1222:B 1.88602e-05
16 *93:14 *1222:C 5.05521e-05
17 *93:14 *1222:D_N 2.5415e-05
18 *93:14 *1292:A 0
19 *93:14 *1292:B 4.35648e-05
20 *93:14 *149:24 7.82716e-05
21 *93:29 *1230:B2 0
22 *93:29 *1292:A 0.000665545
23 *93:29 *1293:A0 0.000226373
24 *93:29 *1307:A 1.79483e-05
25 *93:29 *150:14 0.000161452
26 *93:29 *150:18 0
27 *93:29 *173:101 0.000219448
28 *93:29 *204:105 0.000409373
*RES
1 *1222:Y *93:14 9.41 
2 *93:14 *1245:A2 2.74 
3 *93:14 *93:29 18.775 
4 *93:29 *1267:A2 2.41 
5 *93:29 *1475:A 14.24 
*END

*D_NET *94 0.00353517
*CONN
*I *1242:B I *D sky130_fd_sc_hd__or3_1
*I *1223:X O *D sky130_fd_sc_hd__a22o_1
*CAP
1 *1242:B 0.00120163
2 *1223:X 0.00120163
3 *1242:B *1243:A2 7.95388e-05
4 *1242:B *1275:B1 3.63158e-05
5 *1242:B *1275:B2 0.000278111
6 *1242:B *1281:A0 0
7 *1242:B *97:52 9.09369e-05
8 *1242:B *185:52 7.06865e-05
9 *1242:B *186:76 0.000351262
10 *1242:B *195:54 0
11 *1242:B *195:56 0
12 *1242:B *204:63 4.82919e-05
13 *1242:B *204:80 0.000128483
14 *1223:A2 *1242:B 4.82863e-05
*RES
1 *1223:X *1242:B 24.945 
*END

*D_NET *95 0.00715724
*CONN
*I *1256:A2 I *D sky130_fd_sc_hd__a22o_1
*I *1267:B1 I *D sky130_fd_sc_hd__a22o_1
*I *1302:B I *D sky130_fd_sc_hd__nand2_2
*I *1227:B1 I *D sky130_fd_sc_hd__a221o_1
*I *1247:A2 I *D sky130_fd_sc_hd__a221o_1
*I *1224:X O *D sky130_fd_sc_hd__and4bb_2
*CAP
1 *1256:A2 0.000139894
2 *1267:B1 0.000158264
3 *1302:B 0.000210612
4 *1227:B1 0
5 *1247:A2 3.27257e-05
6 *1224:X 0.000205149
7 *95:46 0.00108023
8 *95:42 0.00159618
9 *95:33 0.000907609
10 *95:18 0.000400545
11 *1247:A2 *1247:A1 1.85674e-05
12 *1247:A2 *198:12 0
13 *1256:A2 *1257:C1 5.05437e-05
14 *1256:A2 *1368:CLK 5.88045e-05
15 *1256:A2 *100:42 0.000104096
16 *1267:B1 *1306:S 0
17 *1267:B1 *1386:CLK 9.44815e-05
18 *1267:B1 *204:105 0.000192368
19 *1302:B *1302:A 9.09788e-06
20 *1302:B *1306:S 1.92979e-05
21 *95:18 *1224:D 0.000119762
22 *95:18 *1247:A1 8.40213e-05
23 *95:18 *1247:C1 7.36562e-05
24 *95:18 *1251:C1 0.000136884
25 *95:18 *197:95 8.23457e-05
26 *95:18 *209:98 0.000119762
27 *95:33 *1227:A1 0.000177738
28 *95:33 *198:12 7.00889e-06
29 *95:33 *202:16 0
30 *95:33 *209:98 3.05373e-05
31 *95:42 *1251:A1 0.000334617
32 *95:42 *1368:CLK 3.63701e-06
33 *95:42 *1445:A 7.89034e-05
34 *95:42 *100:8 6.44134e-05
35 *95:42 *100:27 5.00612e-05
36 *95:42 *100:42 0.000125359
37 *95:42 *182:19 0
38 *95:42 *182:29 0
39 *95:42 *182:92 0
40 *95:42 *191:105 0.000184053
41 *95:42 *202:8 0
42 *95:42 *202:10 0
43 *95:42 *209:98 2.97561e-05
44 *95:42 *210:29 0
45 *95:42 *256:12 3.86607e-05
46 *95:46 *204:103 0
47 *1227:A2 *95:18 1.16578e-05
48 *1227:A2 *95:33 8.18542e-05
49 *1374:D *95:42 0
50 *1375:D *95:42 4.40812e-05
51 *1386:D *1267:B1 0
*RES
1 *1224:X *95:18 10.67 
2 *95:18 *1247:A2 2.39125 
3 *95:18 *95:33 5.63 
4 *95:33 *1227:B1 3.6 
5 *95:33 *95:42 16.5525 
6 *95:42 *95:46 1.7616 
7 *95:46 *1302:B 4.7201 
8 *95:46 *1267:B1 8.1575 
9 *95:42 *1256:A2 6.8475 
*END

*D_NET *96 0.000621431
*CONN
*I *1469:A I *D sky130_fd_sc_hd__buf_1
*I *1227:C1 I *D sky130_fd_sc_hd__a221o_1
*I *1225:Y O *D sky130_fd_sc_hd__nor4_1
*CAP
1 *1469:A 4.72278e-05
2 *1227:C1 0
3 *1225:Y 8.4005e-05
4 *96:8 0.000131233
5 *1469:A *1225:C 1.12578e-05
6 *1469:A *1225:D 8.40269e-05
7 *1469:A *1233:B_N 5.83121e-06
8 *1469:A *209:98 8.43862e-05
9 *96:8 *1225:C 8.40269e-05
10 *96:8 *1227:B2 5.4155e-06
11 *96:8 *209:98 0
12 *96:8 *210:29 8.40213e-05
*RES
1 *1225:Y *96:8 4.045 
2 *96:8 *1227:C1 1.6 
3 *96:8 *1469:A 3.775 
*END

*D_NET *97 0.0104163
*CONN
*I *1275:A2 I *D sky130_fd_sc_hd__o22a_1
*I *1243:A2 I *D sky130_fd_sc_hd__o21ba_1
*I *1265:A2 I *D sky130_fd_sc_hd__o21ba_1
*I *1254:A2 I *D sky130_fd_sc_hd__o21ba_1
*I *1226:X O *D sky130_fd_sc_hd__or4_2
*CAP
1 *1275:A2 0
2 *1243:A2 0.000622477
3 *1265:A2 0
4 *1254:A2 0.00113475
5 *1226:X 0
6 *97:52 0.000824562
7 *97:35 0.000893137
8 *97:6 0.0018258
9 *1243:A2 *1243:A1 0.00010258
10 *1243:A2 *1275:B1 4.00541e-06
11 *1243:A2 *1275:B2 8.31082e-05
12 *1243:A2 *1278:A1 0.000217523
13 *1243:A2 *1278:S 0.000617727
14 *1243:A2 *204:63 0.000879047
15 *1254:A2 *1226:A 2.24336e-05
16 *1254:A2 *1250:A1 0.000232105
17 *1254:A2 *1250:B1 4.82919e-05
18 *1254:A2 *1250:B2 4.49661e-05
19 *1254:A2 *1254:A1 5.20897e-05
20 *1254:A2 *1254:B1_N 4.00541e-06
21 *1254:A2 *1255:B1 0.000232999
22 *1254:A2 *1438:A 0.000100162
23 *97:35 *1259:A1 3.47837e-05
24 *97:35 *1264:B 0
25 *97:35 *1264:C 0
26 *97:35 *1265:A1 6.47594e-05
27 *97:35 *1266:B1 0.000183123
28 *97:35 *1366:RESET_B 6.1452e-05
29 *97:35 *1391:CLK 0.000203074
30 *97:35 *1438:A 7.23533e-05
31 *97:35 *169:12 0.000846022
32 *97:35 *184:89 0.000123978
33 *97:35 *204:63 4.43871e-06
34 *97:35 *205:35 0
35 *97:52 *1275:B1 0.000248114
36 *97:52 *1275:B2 2.66586e-05
37 *97:52 *1276:A0 9.50342e-06
38 *97:52 *204:63 0
39 *97:52 *204:80 1.37328e-05
40 *97:52 *205:35 4.9968e-05
41 *1242:B *1243:A2 7.95388e-05
42 *1242:B *97:52 9.09369e-05
43 *1250:A2 *1254:A2 0.00024398
44 *88:12 *1254:A2 0
45 *88:12 *97:35 0
46 *88:42 *1254:A2 0.000118081
47 *92:36 *97:35 0
*RES
1 *1226:X *97:6 3.6 
2 *97:6 *1254:A2 22.065 
3 *97:6 *97:35 20.255 
4 *97:35 *1265:A2 1.6 
5 *97:35 *97:52 8.29 
6 *97:52 *1243:A2 17.515 
7 *97:52 *1275:A2 1.6 
*END

*D_NET *98 0.00124661
*CONN
*I *1230:C1 I *D sky130_fd_sc_hd__a221o_1
*I *1227:X O *D sky130_fd_sc_hd__a221o_1
*CAP
1 *1230:C1 0.000525511
2 *1227:X 0.000525511
3 *1230:C1 *1222:B 0
4 *1230:C1 *1230:B2 9.50342e-06
5 *1230:C1 *1247:C1 1.52862e-05
6 *1230:C1 *1303:A1 0
7 *1230:C1 *1445:A 9.5799e-06
8 *1230:C1 *197:74 9.766e-05
9 *1230:C1 *197:78 4.46999e-05
10 *1230:C1 *209:37 0
11 *1230:C1 *210:29 1.88602e-05
*RES
1 *1227:X *1230:C1 12.5424 
*END

*D_NET *99 0.00764144
*CONN
*I *1258:A2 I *D sky130_fd_sc_hd__a221o_1
*I *1269:A2 I *D sky130_fd_sc_hd__a221o_1
*I *1230:A2 I *D sky130_fd_sc_hd__a221o_1
*I *1292:B I *D sky130_fd_sc_hd__nand2_2
*I *1245:B1 I *D sky130_fd_sc_hd__a22o_1
*I *1228:X O *D sky130_fd_sc_hd__and4bb_2
*CAP
1 *1258:A2 0.000273595
2 *1269:A2 0.000220228
3 *1230:A2 2.55673e-05
4 *1292:B 9.6964e-05
5 *1245:B1 0.00027982
6 *1228:X 0
7 *99:55 0.00132425
8 *99:40 0.00122137
9 *99:23 0.000626674
10 *99:4 0.00044416
11 *1230:A2 *1230:B1 4.33623e-05
12 *1245:B1 *1230:A1 0.000160211
13 *1245:B1 *1245:A1 4.30228e-05
14 *1245:B1 *1245:B2 4.66108e-05
15 *1245:B1 *1293:A1 2.30258e-05
16 *1245:B1 *1293:S 0.000136877
17 *1245:B1 *1372:RESET_B 0
18 *1245:B1 *1421:A 0.000287337
19 *1245:B1 *147:12 0.000121023
20 *1258:A2 *1258:A1 0.000105748
21 *1258:A2 *1258:B1 0
22 *1258:A2 *1258:C1 0.000315139
23 *1258:A2 *1295:A0 8.53113e-06
24 *1258:A2 *1316:A0 6.20667e-05
25 *1258:A2 *186:91 3.37312e-05
26 *1258:A2 *253:10 1.1561e-05
27 *1269:A2 *1217:A_N 0.000101317
28 *1269:A2 *1241:D1 1.94558e-05
29 *1269:A2 *1258:B1 0
30 *1269:A2 *1270:C1 1.16578e-05
31 *1269:A2 *1427:A 1.01661e-05
32 *1269:A2 *186:91 1.65105e-05
33 *1269:A2 *199:80 0
34 *1269:A2 *199:93 0
35 *1269:A2 *201:122 5.53249e-06
36 *1292:B *1222:A 7.06865e-05
37 *1292:B *1222:B 3.67779e-05
38 *1292:B *1222:C 1.47347e-05
39 *99:23 *1230:A1 0.000221063
40 *99:40 *1230:A1 0.000486013
41 *99:40 *1230:B1 1.56143e-05
42 *99:55 *1230:B1 0.000167886
43 *99:55 *1241:D1 1.39435e-05
44 *99:55 *182:10 0.000100729
45 *99:55 *186:91 9.82856e-06
46 *99:55 *209:106 0.000306155
47 *1375:D *99:55 7.89269e-05
48 *93:14 *1292:B 4.35648e-05
*RES
1 *1228:X *99:4 1.6 
2 *99:4 *1245:B1 12.005 
3 *99:4 *99:23 2.175 
4 *99:23 *1292:B 7.535 
5 *99:23 *99:40 4.95375 
6 *99:40 *1230:A2 2.215 
7 *99:40 *99:55 12.7738 
8 *99:55 *1269:A2 7.71 
9 *99:55 *1258:A2 9.9 
*END

*D_NET *100 0.0053243
*CONN
*I *1256:B1 I *D sky130_fd_sc_hd__a22o_1
*I *1268:B1 I *D sky130_fd_sc_hd__a221o_1
*I *1307:B I *D sky130_fd_sc_hd__nand2_1
*I *1251:B1 I *D sky130_fd_sc_hd__a221o_1
*I *1230:B1 I *D sky130_fd_sc_hd__a221o_1
*I *1229:X O *D sky130_fd_sc_hd__and4bb_1
*CAP
1 *1256:B1 0
2 *1268:B1 2.42688e-05
3 *1307:B 8.87648e-05
4 *1251:B1 0
5 *1230:B1 0.000142776
6 *1229:X 8.70051e-05
7 *100:50 0.000342621
8 *100:42 0.000749219
9 *100:27 0.000575001
10 *100:8 0.00028515
11 *1230:B1 *1230:A1 4.66108e-05
12 *1230:B1 *1241:D1 4.10476e-05
13 *1268:B1 *1268:C1 4.82919e-05
14 *1268:B1 *1311:A1 3.00381e-05
15 *1268:B1 *146:44 1.61831e-05
16 *1268:B1 *208:62 0.000152328
17 *1268:B1 *266:14 2.66464e-05
18 *1307:B *1268:C1 0.000347911
19 *1307:B *150:6 2.16833e-05
20 *1307:B *208:62 0.000198934
21 *1307:B *208:68 0.000203461
22 *100:8 *1251:C1 0
23 *100:8 *1375:CLK 1.70935e-05
24 *100:8 *210:29 4.43871e-06
25 *100:27 *1251:A1 9.50342e-06
26 *100:27 *1375:CLK 6.99988e-05
27 *100:42 *1251:A1 0.00060271
28 *100:42 *1256:A1 1.61831e-05
29 *100:42 *1256:B2 1.85674e-05
30 *100:42 *1310:A1 0
31 *100:42 *1375:CLK 0.000102338
32 *100:42 *150:18 0
33 *100:42 *191:68 9.62108e-05
34 *100:42 *191:90 0.000142046
35 *100:50 *1256:A1 3.00381e-05
36 *100:50 *1310:A1 1.70935e-05
37 *100:50 *1368:CLK 0
38 *100:50 *150:14 0
39 *100:50 *183:61 0.000199345
40 *1230:A2 *1230:B1 4.33623e-05
41 *1256:A2 *100:42 0.000104096
42 *1475:A *100:50 0
43 *95:42 *100:8 6.44134e-05
44 *95:42 *100:27 5.00612e-05
45 *95:42 *100:42 0.000125359
46 *99:40 *1230:B1 1.56143e-05
47 *99:55 *1230:B1 0.000167886
*RES
1 *1229:X *100:8 5.49 
2 *100:8 *1230:B1 7.305 
3 *100:8 *100:27 1.635 
4 *100:27 *1251:B1 3.6 
5 *100:27 *100:42 16.1 
6 *100:42 *100:50 8.38 
7 *100:50 *1307:B 5.515 
8 *100:50 *1268:B1 3.085 
9 *100:42 *1256:B1 1.6 
*END

*D_NET *101 0.00692812
*CONN
*I *1241:D1 I *D sky130_fd_sc_hd__a2111o_1
*I *1230:X O *D sky130_fd_sc_hd__a221o_1
*CAP
1 *1241:D1 0.00221522
2 *1230:X 0.00221522
3 *1241:D1 *1241:A1 4.18603e-06
4 *1241:D1 *1242:C 0.000179036
5 *1241:D1 *1250:B1 0.00034058
6 *1241:D1 *1250:B2 9.06521e-05
7 *1241:D1 *1252:A1 0
8 *1241:D1 *1269:C1 2.05056e-05
9 *1241:D1 *1270:A1 3.14395e-05
10 *1241:D1 *1270:B2 6.03947e-06
11 *1241:D1 *1270:C1 0.000680812
12 *1241:D1 *1296:A0 0.000118973
13 *1241:D1 *1296:A1 4.40325e-06
14 *1241:D1 *1319:A1 9.71067e-05
15 *1241:D1 *1437:A 7.23533e-05
16 *1241:D1 *102:37 0.000223019
17 *1241:D1 *171:125 8.40269e-05
18 *1241:D1 *182:10 0.000171288
19 *1241:D1 *254:12 4.66108e-05
20 *1230:B1 *1241:D1 4.10476e-05
21 *1269:A2 *1241:D1 1.94558e-05
22 *1270:A2 *1241:D1 3.84487e-05
23 *1270:B1 *1241:D1 1.56428e-05
24 *1375:D *1241:D1 0.00011577
25 *92:10 *1241:D1 8.23457e-05
26 *99:55 *1241:D1 1.39435e-05
*RES
1 *1230:X *1241:D1 45.685 
*END

*D_NET *102 0.00785483
*CONN
*I *1258:B1 I *D sky130_fd_sc_hd__a221o_1
*I *1250:B1 I *D sky130_fd_sc_hd__a221o_1
*I *1317:B I *D sky130_fd_sc_hd__nand2_2
*I *1241:A2 I *D sky130_fd_sc_hd__a2111o_1
*I *1273:B1 I *D sky130_fd_sc_hd__a221o_1
*I *1231:X O *D sky130_fd_sc_hd__and3b_2
*CAP
1 *1258:B1 0.000468697
2 *1250:B1 0.000182302
3 *1317:B 1.0276e-05
4 *1241:A2 0
5 *1273:B1 0.000255344
6 *1231:X 2.5813e-05
7 *102:37 0.000239308
8 *102:29 0.00158677
9 *102:10 0.00149339
10 *102:8 0.000557116
11 *1250:B1 *1242:C 1.44259e-05
12 *1250:B1 *1250:B2 0.000102574
13 *1250:B1 *1250:C1 0.000270944
14 *1250:B1 *1270:A1 0
15 *1258:B1 *1217:C 0.000180675
16 *1258:B1 *1226:B 0
17 *1258:B1 *1258:B2 0.000160651
18 *1258:B1 *1258:C1 4.82863e-05
19 *1258:B1 *1316:A0 1.83756e-05
20 *1258:B1 *198:49 3.50297e-05
21 *1258:B1 *199:80 5.95586e-05
22 *1258:B1 *199:93 7.89689e-05
23 *1273:B1 *1226:B 0
24 *1273:B1 *1273:B2 2.49381e-05
25 *1273:B1 *1273:C1 3.09233e-05
26 *1273:B1 *1321:A1 3.1226e-05
27 *1273:B1 *103:8 0
28 *1273:B1 *199:49 5.87938e-05
29 *1273:B1 *201:92 0
30 *1317:B *152:8 2.16917e-05
31 *102:8 *1232:B 4.77757e-05
32 *102:10 *1226:B 0
33 *102:10 *199:49 2.94708e-05
34 *102:29 *1226:A 1.90662e-05
35 *102:29 *1226:B 5.07419e-05
36 *102:29 *1281:A0 7.9205e-06
37 *102:29 *1286:A1 1.4389e-05
38 *102:29 *1286:S 0.00015712
39 *102:29 *104:12 8.88108e-06
40 *102:29 *207:117 1.76876e-05
41 *102:29 *210:52 4.88572e-05
42 *102:37 *1241:A1 0
43 *102:37 *1250:C1 0.000133465
44 *102:37 *152:8 1.08758e-05
45 *1231:B *1258:B1 0.000136398
46 *1231:B *102:10 3.25831e-05
47 *1241:D1 *1250:B1 0.00034058
48 *1241:D1 *102:37 0.000223019
49 *1249:A2 *1317:B 4.82919e-05
50 *1249:A2 *102:37 0.000126575
51 *1254:A2 *1250:B1 4.82919e-05
52 *1258:A2 *1258:B1 0
53 *1269:A2 *1258:B1 0
54 *1273:A2 *1273:B1 0.000177525
55 *1367:D *102:29 2.75229e-05
56 *91:14 *1258:B1 9.58678e-06
57 *92:10 *1258:B1 7.89034e-05
58 *92:27 *1258:B1 0.000103228
*RES
1 *1231:X *102:8 4.05 
2 *102:8 *102:10 1.125 
3 *102:10 *1273:B1 8.355 
4 *102:10 *102:29 17.56 
5 *102:29 *102:37 7.445 
6 *102:37 *1241:A2 1.6 
7 *102:37 *1317:B 2.05 
8 *102:29 *1250:B1 10.02 
9 *102:8 *1258:B1 14.355 
*END

*D_NET *103 0.0106284
*CONN
*I *1274:A2 I *D sky130_fd_sc_hd__a2111o_1
*I *1249:B1 I *D sky130_fd_sc_hd__a22o_1
*I *1234:A2 I *D sky130_fd_sc_hd__a22o_1
*I *1337:B I *D sky130_fd_sc_hd__nand2_2
*I *1262:B1 I *D sky130_fd_sc_hd__a221o_1
*I *1232:X O *D sky130_fd_sc_hd__and3_2
*CAP
1 *1274:A2 0.000175799
2 *1249:B1 0.000559377
3 *1234:A2 2.61242e-05
4 *1337:B 0.000593265
5 *1262:B1 0.000439443
6 *1232:X 0.000309558
7 *103:45 0.00068188
8 *103:41 0.000785461
9 *103:35 0.0011362
10 *103:8 0.00154581
11 *1234:A2 *1408:CLK 4.66108e-05
12 *1249:B1 *1249:A1 2.75229e-05
13 *1249:B1 *1339:S 0.000176511
14 *1249:B1 *1425:A 0.000207777
15 *1249:B1 *175:64 7.14699e-05
16 *1249:B1 *206:129 0.000189046
17 *1262:B1 *1262:C1 7.9711e-05
18 *1262:B1 *1271:B1 4.99619e-05
19 *1262:B1 *1355:RESET_B 0
20 *1262:B1 *104:12 0.000197612
21 *1262:B1 *155:44 3.18219e-05
22 *1262:B1 *171:81 0
23 *1274:A2 *1250:C1 9.68787e-05
24 *1274:A2 *111:34 0.000101317
25 *1274:A2 *190:40 0.000275548
26 *1337:B *1252:A1 0.000242772
27 *1337:B *1327:B 0
28 *1337:B *1329:A0 1.88904e-05
29 *1337:B *1329:A1 7.23602e-05
30 *1337:B *1329:S 0.000197264
31 *1337:B *1337:A 2.96334e-05
32 *1337:B *104:44 1.50624e-05
33 *1337:B *111:34 8.71079e-05
34 *1337:B *154:6 7.57202e-05
35 *1337:B *156:16 5.51245e-05
36 *1337:B *189:88 0
37 *1337:B *206:115 1.61831e-05
38 *103:8 *1226:A 0.000158502
39 *103:8 *1226:B 0.000135422
40 *103:8 *1273:A1 0.000127424
41 *103:8 *1355:RESET_B 0
42 *103:8 *104:12 0.000220421
43 *103:8 *207:51 0
44 *103:8 *242:10 5.02217e-05
45 *103:35 *1411:RESET_B 9.71251e-06
46 *103:35 *171:125 5.23362e-05
47 *103:35 *180:25 0.000184733
48 *103:35 *230:8 0.000186204
49 *103:41 *1250:C1 6.10014e-05
50 *103:41 *111:34 6.36578e-05
51 *103:41 *175:64 0.00015806
52 *103:45 *1241:B1 0.000180675
53 *103:45 *1252:A1 0.000225175
54 *103:45 *111:34 2.13396e-05
55 *1249:A2 *1249:B1 5.59676e-05
56 *1262:A2 *1262:B1 0
57 *1273:B1 *103:8 0
58 *1411:D *103:35 0.000122749
*RES
1 *1232:X *103:8 11.865 
2 *103:8 *1262:B1 11.745 
3 *103:8 *103:35 19.865 
4 *103:35 *103:41 4.865 
5 *103:41 *103:45 4.655 
6 *103:45 *1337:B 13.665 
7 *103:45 *1234:A2 4.05 
8 *103:41 *1249:B1 16.46 
9 *103:35 *1274:A2 8.265 
*END

*D_NET *104 0.00982376
*CONN
*I *1327:B I *D sky130_fd_sc_hd__nand2_1
*I *1252:A2 I *D sky130_fd_sc_hd__a2111o_1
*I *1234:B1 I *D sky130_fd_sc_hd__a22o_1
*I *1271:A2 I *D sky130_fd_sc_hd__a22o_1
*I *1260:A2 I *D sky130_fd_sc_hd__a22o_1
*I *1233:X O *D sky130_fd_sc_hd__and4bb_2
*CAP
1 *1327:B 4.32862e-05
2 *1252:A2 0.000447999
3 *1234:B1 0
4 *1271:A2 0
5 *1260:A2 0.000266638
6 *1233:X 0.000952555
7 *104:44 0.000572552
8 *104:40 0.000684205
9 *104:29 0.000681837
10 *104:12 0.00138466
11 *1252:A2 *1234:B2 9.50342e-06
12 *1252:A2 *1252:A1 0.00010322
13 *1252:A2 *1252:C1 0.000113797
14 *1252:A2 *1286:S 0.000120655
15 *1252:A2 *1318:S 4.65643e-05
16 *1252:A2 *1365:CLK 0.000172345
17 *1252:A2 *1409:CLK 4.84472e-05
18 *1252:A2 *152:25 4.39079e-05
19 *1252:A2 *175:50 0.000179015
20 *1252:A2 *175:64 0.000202371
21 *1252:A2 *206:115 0
22 *1252:A2 *206:129 6.23119e-05
23 *1260:A2 *1260:A1 0.000650004
24 *1260:A2 *1263:A1 0.000158066
25 *1260:A2 *1271:B2 0
26 *1260:A2 *1335:A1 3.74161e-05
27 *1260:A2 *1336:S 0.000124895
28 *1260:A2 *1403:CLK 4.43871e-06
29 *1260:A2 *155:44 0
30 *1260:A2 *171:36 6.90876e-05
31 *1260:A2 *179:16 0.000123444
32 *1327:B *1329:S 7.23635e-05
33 *1327:B *154:6 3.25676e-05
34 *1327:B *156:16 8.96356e-05
35 *104:12 *1226:A 0.000275917
36 *104:12 *1262:B2 0
37 *104:12 *1262:C1 5.28163e-05
38 *104:12 *1271:B2 0
39 *104:12 *1411:CLK 0
40 *104:12 *155:44 0
41 *104:12 *190:16 0
42 *104:12 *206:28 0.000137578
43 *104:12 *207:78 0
44 *104:12 *229:10 0
45 *104:29 *1262:B2 7.35813e-05
46 *104:29 *1271:A1 2.30292e-05
47 *104:29 *1271:B1 4.43682e-05
48 *104:40 *1271:A1 0.000237243
49 *104:40 *1329:S 0.000156118
50 *104:40 *156:16 0.000190121
51 *104:44 *1234:B2 0.000375626
52 *104:44 *1252:A1 0.000121868
53 *104:44 *1329:A0 9.5799e-06
54 *1262:B1 *104:12 0.000197612
55 *1337:B *1327:B 0
56 *1337:B *104:44 1.50624e-05
57 *1392:D *1252:A2 9.30717e-05
58 *1401:D *104:44 9.30787e-05
59 *102:29 *104:12 8.88108e-06
60 *103:8 *104:12 0.000220421
*RES
1 *1233:X *104:12 21.135 
2 *104:12 *1260:A2 11.715 
3 *104:12 *104:29 5.225 
4 *104:29 *1271:A2 1.6 
5 *104:29 *104:40 9.885 
6 *104:40 *104:44 6.44 
7 *104:44 *1234:B1 3.6 
8 *104:44 *1252:A2 15.345 
9 *104:40 *1327:B 3.205 
*END

*D_NET *105 0.00152617
*CONN
*I *1241:B1 I *D sky130_fd_sc_hd__a2111o_1
*I *1234:X O *D sky130_fd_sc_hd__a22o_1
*CAP
1 *1241:B1 0.000191534
2 *1234:X 0.000191534
3 *1241:B1 *1241:A1 0.000200648
4 *1241:B1 *1250:C1 0
5 *1241:B1 *1252:A1 8.97836e-05
6 *1241:B1 *1318:A1 7.23602e-05
7 *1241:B1 *111:34 0.000599633
8 *103:45 *1241:B1 0.000180675
*RES
1 *1234:X *1241:B1 14.445 
*END

*D_NET *106 0.0090558
*CONN
*I *1248:B1 I *D sky130_fd_sc_hd__a22o_1
*I *1342:B I *D sky130_fd_sc_hd__nand2_1
*I *1237:A2 I *D sky130_fd_sc_hd__a22o_1
*I *1260:B1 I *D sky130_fd_sc_hd__a22o_1
*I *1269:B1 I *D sky130_fd_sc_hd__a221o_1
*I *1235:X O *D sky130_fd_sc_hd__and4b_2
*CAP
1 *1248:B1 3.96248e-05
2 *1342:B 0
3 *1237:A2 0.000263212
4 *1260:B1 0
5 *1269:B1 0.000193276
6 *1235:X 0.000398098
7 *106:60 0.000617774
8 *106:47 0.000861204
9 *106:35 0.00113826
10 *106:12 0.00118337
11 *1237:A2 *157:6 2.16833e-05
12 *1237:A2 *171:36 0.000128896
13 *1248:B1 *207:51 2.05571e-05
14 *1269:B1 *1211:B 0.000238428
15 *1269:B1 *1269:C1 2.49909e-05
16 *1269:B1 *1296:A1 4.66108e-05
17 *1269:B1 *1427:A 3.30948e-05
18 *1269:B1 *1437:A 5.46798e-05
19 *1269:B1 *167:10 9.14049e-05
20 *1269:B1 *197:105 7.06865e-05
21 *1269:B1 *197:120 0.000259146
22 *106:12 *1227:A1 2.87867e-05
23 *106:12 *197:105 0.00049767
24 *106:12 *199:27 3.32709e-05
25 *106:12 *201:92 1.61831e-05
26 *106:35 *1273:C1 0
27 *106:35 *1427:A 0.000119219
28 *106:35 *201:92 0.000149418
29 *106:35 *207:51 1.61696e-05
30 *106:47 *1214:A0 0
31 *106:47 *1263:A1 0
32 *106:47 *1263:B1 0
33 *106:47 *1263:C1 2.51475e-05
34 *106:47 *1344:A0 0.000420624
35 *106:47 *110:59 1.17114e-05
36 *106:47 *111:34 8.40692e-05
37 *106:47 *155:44 1.13785e-05
38 *106:47 *207:51 0.000137333
39 *106:60 *1260:B2 0.000270415
40 *106:60 *1344:A0 3.261e-05
41 *106:60 *1344:A1 9.8249e-05
42 *106:60 *1344:S 3.74161e-05
43 *106:60 *157:6 0.000539432
44 *106:60 *171:36 0.000395762
45 *1215:S *106:35 9.50342e-06
46 *1215:S *106:47 0
47 *1216:S *106:35 0.000255338
48 *1354:D *106:47 6.73074e-05
49 *87:19 *106:35 0.00011379
*RES
1 *1235:X *106:12 11.405 
2 *106:12 *1269:B1 11.255 
3 *106:12 *106:35 12.1925 
4 *106:35 *106:47 15.7275 
5 *106:47 *1260:B1 1.6 
6 *106:47 *106:60 9.9 
7 *106:60 *1237:A2 5.875 
8 *106:60 *1342:B 1.6 
9 *106:35 *1248:B1 4.2825 
*END

*D_NET *107 0.00597252
*CONN
*I *1246:A2 I *D sky130_fd_sc_hd__a22o_1
*I *1272:A2 I *D sky130_fd_sc_hd__a22o_1
*I *1261:A2 I *D sky130_fd_sc_hd__a22o_1
*I *1237:B1 I *D sky130_fd_sc_hd__a22o_1
*I *1322:B I *D sky130_fd_sc_hd__nand2_2
*I *1236:X O *D sky130_fd_sc_hd__and4bb_2
*CAP
1 *1246:A2 0.000150618
2 *1272:A2 0
3 *1261:A2 0.000247513
4 *1237:B1 0.000122531
5 *1322:B 0.000109835
6 *1236:X 0.000117513
7 *107:30 0.000449853
8 *107:26 0.000934373
9 *107:18 0.00084817
10 *107:10 0.000646928
11 *1237:B1 *171:36 9.51192e-05
12 *1246:A2 *109:25 0.000385713
13 *1261:A2 *1261:B1 9.05901e-05
14 *1261:A2 *1347:A 0.000159697
15 *1261:A2 *1347:B 4.77719e-05
16 *1261:A2 *1348:A0 8.39329e-05
17 *1261:A2 *1348:A1 4.82863e-05
18 *1261:A2 *1418:RESET_B 5.4155e-06
19 *1261:A2 *158:8 6.07575e-06
20 *1261:A2 *158:30 2.01565e-05
21 *1261:A2 *206:44 0.0001104
22 *1322:B *1322:A 3.38272e-05
23 *1322:B *171:36 4.13077e-05
24 *1322:B *214:18 0
25 *107:10 *1247:A1 7.69678e-05
26 *107:10 *1421:A 6.02202e-05
27 *107:18 *1272:B2 2.49909e-05
28 *107:18 *1303:A0 2.62017e-05
29 *107:18 *1324:S 8.40213e-05
30 *107:18 *1380:CLK 0
31 *107:18 *1421:A 0.00010436
32 *107:26 *1272:A1 0.000208484
33 *107:26 *1303:A0 0
34 *107:26 *1322:A 6.89764e-06
35 *107:26 *1348:A0 0
36 *107:26 *1351:S 5.29829e-05
37 *107:26 *109:25 5.53249e-06
38 *107:26 *109:29 0.000340734
39 *107:30 *1237:B2 0
40 *107:30 *1240:C1 0
41 *107:30 *1322:A 7.30085e-05
42 *107:30 *1348:A1 0
43 *107:30 *1416:CLK 0.000104893
44 *1405:D *107:26 0
45 *1416:D *1261:A2 4.75991e-05
*RES
1 *1236:X *107:10 5.775 
2 *107:10 *107:18 8.06 
3 *107:18 *107:26 11.075 
4 *107:26 *107:30 6.185 
5 *107:30 *1322:B 3.445 
6 *107:30 *1237:B1 3.775 
7 *107:26 *1261:A2 8.895 
8 *107:18 *1272:A2 1.6 
9 *107:10 *1246:A2 7.155 
*END

*D_NET *108 0.000279747
*CONN
*I *1240:C1 I *D sky130_fd_sc_hd__a221o_1
*I *1237:X O *D sky130_fd_sc_hd__a22o_1
*CAP
1 *1240:C1 6.94211e-05
2 *1237:X 6.94211e-05
3 *1240:C1 *1240:B2 0.000140905
4 *107:30 *1240:C1 0
*RES
1 *1237:X *1240:C1 8.835 
*END

*D_NET *109 0.00771648
*CONN
*I *1272:B1 I *D sky130_fd_sc_hd__a22o_1
*I *1240:A2 I *D sky130_fd_sc_hd__a221o_1
*I *1347:B I *D sky130_fd_sc_hd__nand2_1
*I *1261:B1 I *D sky130_fd_sc_hd__a22o_1
*I *1246:B1 I *D sky130_fd_sc_hd__a22o_1
*I *1238:X O *D sky130_fd_sc_hd__and4b_2
*CAP
1 *1272:B1 0
2 *1240:A2 0.00053975
3 *1347:B 1.47413e-05
4 *1261:B1 9.94568e-05
5 *1246:B1 0
6 *1238:X 0.000293965
7 *109:41 0.000474732
8 *109:29 0.0010785
9 *109:25 0.000560853
10 *109:14 0.000676606
11 *1240:A2 *1240:A1 1.08758e-05
12 *1240:A2 *1240:B1 5.80482e-06
13 *1240:A2 *1333:S 0.00011379
14 *1240:A2 *1334:S 0.000226999
15 *1240:A2 *110:10 0.000131532
16 *1240:A2 *110:14 0.000152449
17 *1240:A2 *173:22 0.000230194
18 *1261:B1 *1418:RESET_B 7.00889e-06
19 *1261:B1 *158:8 0.000137524
20 *1261:B1 *158:30 5.12969e-06
21 *1347:B *158:8 1.19928e-05
22 *109:14 *1238:C 0.000115762
23 *109:14 *1246:A1 6.97118e-05
24 *109:14 *1324:A1 2.49909e-05
25 *109:14 *1381:RESET_B 9.5433e-05
26 *109:14 *173:46 5.02217e-05
27 *109:25 *1246:A1 2.30292e-05
28 *109:25 *1251:C1 0.000602899
29 *109:25 *1303:A0 0.000119931
30 *109:29 *1272:A1 0.000208484
31 *109:29 *1272:B2 0.000450716
32 *109:29 *1351:S 5.1875e-05
33 *109:41 *1421:A 0.000139269
34 *109:41 *173:22 9.69304e-05
35 *1246:A2 *109:25 0.000385713
36 *1261:A2 *1261:B1 9.05901e-05
37 *1261:A2 *1347:B 4.77719e-05
38 *1419:D *109:41 2.49909e-05
39 *107:26 *109:25 5.53249e-06
40 *107:26 *109:29 0.000340734
*RES
1 *1238:X *109:14 10.385 
2 *109:14 *1246:B1 1.6 
3 *109:14 *109:25 11.66 
4 *109:25 *109:29 8.735 
5 *109:29 *109:41 9.055 
6 *109:41 *1261:B1 4.495 
7 *109:41 *1347:B 2.05 
8 *109:29 *1240:A2 14.7688 
9 *109:25 *1272:B1 3.6 
*END

*D_NET *110 0.00776143
*CONN
*I *1247:B1 I *D sky130_fd_sc_hd__a221o_1
*I *1332:B I *D sky130_fd_sc_hd__nand2_2
*I *1271:B1 I *D sky130_fd_sc_hd__a22o_1
*I *1263:A2 I *D sky130_fd_sc_hd__a211o_1
*I *1240:B1 I *D sky130_fd_sc_hd__a221o_1
*I *1239:X O *D sky130_fd_sc_hd__and4b_2
*CAP
1 *1247:B1 2.66752e-05
2 *1332:B 0
3 *1271:B1 0.000578117
4 *1263:A2 0
5 *1240:B1 0.000142203
6 *1239:X 6.90588e-05
7 *110:59 0.00172018
8 *110:14 0.0013571
9 *110:10 0.000560474
10 *110:6 0.000583375
11 *1240:B1 *1240:A1 2.76178e-05
12 *1240:B1 *177:76 5.83121e-06
13 *1247:B1 *1247:A1 2.49909e-05
14 *1271:B1 *1262:A1 0.000118081
15 *1271:B1 *1262:B2 0.000271559
16 *1271:B1 *111:34 0
17 *110:6 *1247:A1 6.36639e-05
18 *110:6 *1247:B2 1.12643e-05
19 *110:10 *1213:A1 0
20 *110:10 *1227:A1 0
21 *110:10 *1247:B2 0.000451829
22 *110:10 *1251:C1 9.37731e-05
23 *110:10 *1334:A1 0.000139238
24 *110:10 *1334:S 1.07797e-05
25 *110:10 *1342:A 8.7152e-06
26 *110:10 *175:70 0
27 *110:10 *178:20 0
28 *110:10 *197:105 1.26548e-05
29 *110:10 *207:18 0.000121187
30 *110:14 *1333:S 3.57924e-05
31 *110:14 *1342:A 0.000226418
32 *110:59 *1263:B1 7.96104e-06
33 *110:59 *1263:C1 0.00024495
34 *110:59 *1413:CLK 2.75229e-05
35 *110:59 *111:34 0.000210295
36 *110:59 *171:81 4.61701e-06
37 *110:59 *179:49 1.7635e-05
38 *1240:A2 *1240:B1 5.80482e-06
39 *1240:A2 *110:10 0.000131532
40 *1240:A2 *110:14 0.000152449
41 *1262:B1 *1271:B1 4.99619e-05
42 *1352:D *110:10 9.54399e-05
43 *1353:D *110:10 0
44 *1413:D *110:59 9.66021e-05
45 *104:29 *1271:B1 4.43682e-05
46 *106:47 *110:59 1.17114e-05
*RES
1 *1239:X *110:6 2.74 
2 *110:6 *110:10 14.09 
3 *110:10 *110:14 4.655 
4 *110:14 *1240:B1 3.82 
5 *110:14 *110:59 19.1951 
6 *110:59 *1263:A2 1.6 
7 *110:59 *1271:B1 9.1525 
8 *110:10 *1332:B 3.6 
9 *110:6 *1247:B1 2.05 
*END

*D_NET *111 0.0069471
*CONN
*I *1241:C1 I *D sky130_fd_sc_hd__a2111o_1
*I *1240:X O *D sky130_fd_sc_hd__a221o_1
*CAP
1 *1241:C1 0
2 *1240:X 0.0020433
3 *111:34 0.0020433
4 *111:34 *1250:C1 0
5 *111:34 *1263:B1 3.82352e-06
6 *111:34 *1340:A0 4.82863e-05
7 *111:34 *1340:A1 0.00017111
8 *111:34 *1340:S 8.65905e-05
9 *111:34 *1401:CLK 0.0001249
10 *111:34 *1413:CLK 1.83847e-05
11 *111:34 *155:44 0.000124174
12 *111:34 *156:16 0.000175879
13 *111:34 *189:101 5.21714e-05
14 *111:34 *206:28 0.000116853
15 *111:34 *207:51 2.83547e-05
16 *111:34 *241:8 0.000280802
17 *1241:B1 *111:34 0.000599633
18 *1271:B1 *111:34 0
19 *1274:A2 *111:34 0.000101317
20 *1337:B *111:34 8.71079e-05
21 *1354:D *111:34 9.50342e-06
22 *1410:D *111:34 0.000385333
23 *1413:D *111:34 6.6925e-05
24 *103:41 *111:34 6.36578e-05
25 *103:45 *111:34 2.13396e-05
26 *106:47 *111:34 8.40692e-05
27 *110:59 *111:34 0.000210295
*RES
1 *1240:X *111:34 48.45 
2 *111:34 *1241:C1 1.6 
*END

*D_NET *112 0.00418795
*CONN
*I *1242:C I *D sky130_fd_sc_hd__or3_1
*I *1241:X O *D sky130_fd_sc_hd__a2111o_1
*CAP
1 *1242:C 0.00100043
2 *1241:X 0.00100043
3 *1242:C *1219:A1 0.000171172
4 *1242:C *1250:B2 0.000229897
5 *1242:C *1252:A1 3.86607e-05
6 *1242:C *1253:B 5.34356e-05
7 *1242:C *1253:C 0.000268203
8 *1242:C *1277:B 2.63122e-05
9 *1242:C *1319:A1 9.5433e-05
10 *1242:C *1364:CLK 6.95505e-05
11 *1242:C *1391:RESET_B 0.000178314
12 *1242:C *152:25 3.70557e-05
13 *1242:C *194:32 9.86532e-05
14 *1242:C *195:56 2.97004e-06
15 *1242:C *204:20 0.000213534
16 *1242:C *205:19 5.93674e-05
17 *1242:C *267:10 0.000136182
18 *1241:D1 *1242:C 0.000179036
19 *1242:A *1242:C 0.00011852
20 *1249:A2 *1242:C 0.000196376
21 *1250:B1 *1242:C 1.44259e-05
22 *1389:D *1242:C 0
*RES
1 *1241:X *1242:C 30.81 
*END

*D_NET *113 0.000483733
*CONN
*I *1244:B1 I *D sky130_fd_sc_hd__a22o_1
*I *1242:X O *D sky130_fd_sc_hd__or3_1
*CAP
1 *1244:B1 0.000128111
2 *1242:X 0.000128111
3 *1244:B1 *1356:CLK 0
4 *1244:B1 *185:25 0
5 *1244:B1 *186:76 8.8266e-05
6 *1244:B1 *204:20 0.000139245
*RES
1 *1242:X *1244:B1 9.63 
*END

*D_NET *114 0.00133347
*CONN
*I *1244:B2 I *D sky130_fd_sc_hd__a22o_1
*I *1243:X O *D sky130_fd_sc_hd__o21ba_1
*CAP
1 *1244:B2 0.0004182
2 *1243:X 0.0004182
3 *1244:B2 *1243:B1_N 8.53113e-06
4 *1244:B2 *1244:A2 0.000220735
5 *1244:B2 *1278:A0 4.91927e-05
6 *1244:B2 *1356:RESET_B 5.4003e-05
7 *1244:B2 *1471:A 0
8 *1244:B2 *204:20 3.76034e-05
9 *1356:D *1244:B2 0.000127005
*RES
1 *1243:X *1244:B2 15.99 
*END

*D_NET *115 0.00316809
*CONN
*I *1247:C1 I *D sky130_fd_sc_hd__a221o_1
*I *1245:X O *D sky130_fd_sc_hd__a22o_1
*CAP
1 *1247:C1 0.000752528
2 *1245:X 0.000752528
3 *1247:C1 *1230:B2 0.000155208
4 *1247:C1 *1247:B2 9.50342e-06
5 *1247:C1 *1251:B2 0
6 *1247:C1 *1251:C1 7.40785e-05
7 *1247:C1 *1375:CLK 0
8 *1247:C1 *147:12 0.000311282
9 *1247:C1 *147:40 0.000226373
10 *1247:C1 *197:74 0.00018305
11 *1247:C1 *197:78 0.00026082
12 *1247:C1 *200:87 3.68784e-05
13 *1247:C1 *200:95 4.86165e-05
14 *1247:C1 *210:10 0.000268285
15 *1230:C1 *1247:C1 1.52862e-05
16 *95:18 *1247:C1 7.36562e-05
*RES
1 *1245:X *1247:C1 22.38 
*END

*D_NET *116 0.00447384
*CONN
*I *1251:C1 I *D sky130_fd_sc_hd__a221o_1
*I *1246:X O *D sky130_fd_sc_hd__a22o_1
*CAP
1 *1251:C1 0.0013408
2 *1246:X 0.0013408
3 *1251:C1 *1224:B_N 0.000129047
4 *1251:C1 *1247:B2 1.07797e-05
5 *1251:C1 *1251:B2 1.16578e-05
6 *1251:C1 *1375:CLK 8.70923e-05
7 *1251:C1 *1449:A 1.34594e-05
8 *1251:C1 *197:105 0.000179015
9 *1251:C1 *200:95 9.14354e-05
10 *1251:C1 *201:92 0.000107112
11 *1251:C1 *210:10 0.000140999
12 *1251:C1 *210:29 0.000114014
13 *1247:C1 *1251:C1 7.40785e-05
14 *95:18 *1251:C1 0.000136884
15 *100:8 *1251:C1 0
16 *109:25 *1251:C1 0.000602899
17 *110:10 *1251:C1 9.37731e-05
*RES
1 *1246:X *1251:C1 29.025 
*END

*D_NET *117 0.0055946
*CONN
*I *1252:B1 I *D sky130_fd_sc_hd__a2111o_1
*I *1247:X O *D sky130_fd_sc_hd__a221o_1
*CAP
1 *1252:B1 0.00275047
2 *1247:X 0.00275047
3 *1252:B1 *1233:B_N 4.80383e-05
4 *1252:B1 *1365:CLK 1.00941e-05
5 *1252:B1 *1445:A 1.88656e-05
6 *1252:B1 *152:25 1.00941e-05
7 *1252:B1 *197:105 6.57653e-06
8 *1221:C *1252:B1 0
9 *91:14 *1252:B1 0
*RES
1 *1247:X *1252:B1 13.2478 
*END

*D_NET *118 0.00434799
*CONN
*I *1250:C1 I *D sky130_fd_sc_hd__a221o_1
*I *1248:X O *D sky130_fd_sc_hd__a22o_1
*CAP
1 *1250:C1 0.00148839
2 *1248:X 0.00148839
3 *1250:C1 *1241:A1 0
4 *1250:C1 *1248:A1 1.37328e-05
5 *1250:C1 *1270:A1 0
6 *1250:C1 *1274:A1 0
7 *1250:C1 *1274:B1 0
8 *1250:C1 *1281:A0 0
9 *1250:C1 *1339:S 0.000163175
10 *1250:C1 *1341:A0 4.82919e-05
11 *1250:C1 *1341:A1 0
12 *1250:C1 *156:29 0
13 *1250:C1 *171:125 0
14 *1250:C1 *175:64 0.000133733
15 *1250:C1 *206:28 0.000207947
16 *1250:C1 *207:78 0.000145991
17 *1241:B1 *1250:C1 0
18 *1250:B1 *1250:C1 0.000270944
19 *1262:A2 *1250:C1 4.77719e-05
20 *1274:A2 *1250:C1 9.68787e-05
21 *1411:D *1250:C1 4.82863e-05
22 *102:37 *1250:C1 0.000133465
23 *103:41 *1250:C1 6.10014e-05
24 *111:34 *1250:C1 0
*RES
1 *1248:X *1250:C1 34.98 
*END

*D_NET *119 0.00095222
*CONN
*I *1252:C1 I *D sky130_fd_sc_hd__a2111o_1
*I *1249:X O *D sky130_fd_sc_hd__a22o_1
*CAP
1 *1252:C1 0.000225435
2 *1249:X 0.000225435
3 *1252:C1 *152:25 0.000115464
4 *1249:A2 *1252:C1 0.00027209
5 *1252:A2 *1252:C1 0.000113797
*RES
1 *1249:X *1252:C1 11.1 
*END

*D_NET *120 0.000189201
*CONN
*I *1253:A I *D sky130_fd_sc_hd__or3_1
*I *1250:X O *D sky130_fd_sc_hd__a221o_1
*CAP
1 *1253:A 7.61085e-05
2 *1250:X 7.61085e-05
3 *1253:A *1250:A1 1.19928e-05
4 *1253:A *1253:C 2.49909e-05
5 *1253:A *1254:A1 0
6 *1250:A2 *1253:A 0
*RES
1 *1250:X *1253:A 4.355 
*END

*D_NET *121 0.00609571
*CONN
*I *1253:B I *D sky130_fd_sc_hd__or3_1
*I *1251:X O *D sky130_fd_sc_hd__a221o_1
*CAP
1 *1253:B 0.00182484
2 *1251:X 0.00182484
3 *1253:B *1252:D1 0.00024756
4 *1253:B *1253:C 7.47215e-05
5 *1253:B *1277:B 2.07184e-05
6 *1253:B *1391:RESET_B 2.59981e-05
7 *1253:B *1449:A 4.99619e-05
8 *1253:B *1454:A 3.45679e-05
9 *1253:B *1468:A 4.65607e-05
10 *1253:B *166:10 0.00126252
11 *1253:B *167:31 4.38278e-05
12 *1253:B *208:8 2.49909e-05
13 *1242:C *1253:B 5.34356e-05
14 *1251:A2 *1253:B 0.000168148
15 *1389:D *1253:B 0.000393024
*RES
1 *1251:X *1253:B 35.775 
*END

*D_NET *122 0.00125466
*CONN
*I *1253:C I *D sky130_fd_sc_hd__or3_1
*I *1252:X O *D sky130_fd_sc_hd__a2111o_1
*CAP
1 *1253:C 0.000244446
2 *1252:X 0.000244446
3 *1253:C *1250:A1 4.66108e-05
4 *1253:C *1252:D1 0.00011192
5 *1253:C *1286:S 2.77283e-05
6 *1253:C *152:25 0.000116853
7 *1242:C *1253:C 0.000268203
8 *1253:A *1253:C 2.49909e-05
9 *1253:B *1253:C 7.47215e-05
10 *1393:D *1253:C 9.47454e-05
*RES
1 *1252:X *1253:C 14.16 
*END

*D_NET *123 0.00117873
*CONN
*I *1255:B1 I *D sky130_fd_sc_hd__a22o_1
*I *1253:X O *D sky130_fd_sc_hd__or3_1
*CAP
1 *1255:B1 0.000414736
2 *1253:X 0.000414736
3 *1255:B1 *1254:A1 1.19928e-05
4 *1255:B1 *1255:A1 5.78185e-05
5 *1255:B1 *1255:B2 3.00381e-05
6 *1255:B1 *204:164 1.6408e-05
7 *1254:A2 *1255:B1 0.000232999
*RES
1 *1253:X *1255:B1 8.495 
*END

*D_NET *124 9.40065e-05
*CONN
*I *1255:B2 I *D sky130_fd_sc_hd__a22o_1
*I *1254:X O *D sky130_fd_sc_hd__o21ba_1
*CAP
1 *1255:B2 7.00326e-06
2 *1254:X 7.00326e-06
3 *1255:B2 *1255:A1 4.99619e-05
4 *1255:B1 *1255:B2 3.00381e-05
*RES
1 *1254:X *1255:B2 3.65 
*END

*D_NET *125 0.00173533
*CONN
*I *1257:C1 I *D sky130_fd_sc_hd__a221o_1
*I *1256:X O *D sky130_fd_sc_hd__a22o_1
*CAP
1 *1257:C1 0.000581327
2 *1256:X 0.000581327
3 *1257:C1 *1257:B2 2.7919e-05
4 *1257:C1 *1290:A1 2.96334e-05
5 *1257:C1 *1290:S 0.000454239
6 *1256:A2 *1257:C1 5.05437e-05
7 *1370:D *1257:C1 1.03423e-05
*RES
1 *1256:X *1257:C1 12.545 
*END

*D_NET *126 0.000568244
*CONN
*I *1264:A I *D sky130_fd_sc_hd__or3_1
*I *1257:X O *D sky130_fd_sc_hd__a221o_1
*CAP
1 *1264:A 0.000119214
2 *1257:X 0.000119214
3 *1264:A *1290:A0 0.000236737
4 *92:36 *1264:A 9.30787e-05
*RES
1 *1257:X *1264:A 10.17 
*END

*D_NET *127 0.00069981
*CONN
*I *1259:C1 I *D sky130_fd_sc_hd__a221o_1
*I *1258:X O *D sky130_fd_sc_hd__a221o_1
*CAP
1 *1259:C1 0.000210159
2 *1258:X 0.000210159
3 *1259:C1 *1295:A0 0
4 *1259:C1 *1316:A0 0.000203178
5 *1259:C1 *172:52 0
6 *92:27 *1259:C1 7.63125e-05
*RES
1 *1258:X *1259:C1 10.665 
*END

*D_NET *128 0.000446103
*CONN
*I *1264:B I *D sky130_fd_sc_hd__or3_1
*I *1259:X O *D sky130_fd_sc_hd__a221o_1
*CAP
1 *1264:B 0.000156001
2 *1259:X 0.000156001
3 *1264:B *184:89 9.54399e-05
4 *1264:B *257:14 3.86607e-05
5 *92:36 *1264:B 0
6 *97:35 *1264:B 0
*RES
1 *1259:X *1264:B 10.11 
*END

*D_NET *129 0.000403786
*CONN
*I *1263:B1 I *D sky130_fd_sc_hd__a211o_1
*I *1260:X O *D sky130_fd_sc_hd__a22o_1
*CAP
1 *1263:B1 0.000116532
2 *1260:X 0.000116532
3 *1263:B1 *1263:A1 0.000136095
4 *1263:B1 *1263:C1 2.28415e-05
5 *106:47 *1263:B1 0
6 *110:59 *1263:B1 7.96104e-06
7 *111:34 *1263:B1 3.82352e-06
*RES
1 *1260:X *1263:B1 9.54375 
*END

*D_NET *130 0.0060025
*CONN
*I *1262:C1 I *D sky130_fd_sc_hd__a221o_1
*I *1261:X O *D sky130_fd_sc_hd__a22o_1
*CAP
1 *1262:C1 0.00287275
2 *1261:X 0.00287275
3 *1262:C1 *1261:A1 1.23437e-05
4 *1262:C1 *1263:C1 6.23426e-05
5 *1262:C1 *1264:C 3.70537e-05
6 *1262:C1 *1421:A 1.27225e-05
7 *1262:C1 *155:44 0
8 *1262:B1 *1262:C1 7.9711e-05
9 *104:12 *1262:C1 5.28163e-05
*RES
1 *1261:X *1262:C1 14.3353 
*END

*D_NET *131 0.000732687
*CONN
*I *1263:C1 I *D sky130_fd_sc_hd__a211o_1
*I *1262:X O *D sky130_fd_sc_hd__a221o_1
*CAP
1 *1263:C1 0.000160804
2 *1262:X 0.000160804
3 *1263:C1 *1264:C 3.56092e-05
4 *1263:C1 *171:81 1.00941e-05
5 *1263:C1 *179:49 1.00941e-05
6 *1262:C1 *1263:C1 6.23426e-05
7 *1263:B1 *1263:C1 2.28415e-05
8 *106:47 *1263:C1 2.51475e-05
9 *110:59 *1263:C1 0.00024495
*RES
1 *1262:X *1263:C1 9.36587 
*END

*D_NET *132 0.00741265
*CONN
*I *1264:C I *D sky130_fd_sc_hd__or3_1
*I *1263:X O *D sky130_fd_sc_hd__a211o_1
*CAP
1 *1264:C 0.00358611
2 *1263:X 0.00358611
3 *1264:C *1262:A1 3.96153e-05
4 *1264:C *171:81 8.13313e-06
5 *1264:C *179:49 8.37351e-05
6 *1262:A2 *1264:C 1.34361e-05
7 *1262:C1 *1264:C 3.70537e-05
8 *1263:C1 *1264:C 3.56092e-05
9 *92:36 *1264:C 2.28415e-05
10 *97:35 *1264:C 0
*RES
1 *1263:X *1264:C 16.4306 
*END

*D_NET *133 0.00138406
*CONN
*I *1266:B1 I *D sky130_fd_sc_hd__a22o_1
*I *1264:X O *D sky130_fd_sc_hd__or3_1
*CAP
1 *1266:B1 0.000476732
2 *1264:X 0.000476732
3 *1266:B1 *1223:A1 0
4 *1266:B1 *1266:B2 0.000112963
5 *1266:B1 *204:63 0.000134516
6 *1223:A2 *1266:B1 0
7 *92:36 *1266:B1 0
8 *97:35 *1266:B1 0.000183123
*RES
1 *1264:X *1266:B1 16.485 
*END

*D_NET *134 0.000886789
*CONN
*I *1266:B2 I *D sky130_fd_sc_hd__a22o_1
*I *1265:X O *D sky130_fd_sc_hd__o21ba_1
*CAP
1 *1266:B2 0.000271699
2 *1265:X 0.000271699
3 *1266:B2 *1275:B1 0.000159741
4 *1266:B2 *1276:A0 0
5 *1266:B2 *204:63 7.06865e-05
6 *1266:B2 *205:35 0
7 *1266:B1 *1266:B2 0.000112963
*RES
1 *1265:X *1266:B2 12.105 
*END

*D_NET *135 0.0012628
*CONN
*I *1268:C1 I *D sky130_fd_sc_hd__a221o_1
*I *1267:X O *D sky130_fd_sc_hd__a22o_1
*CAP
1 *1268:C1 0.000149878
2 *1267:X 0.000149878
3 *1268:C1 *1307:A 4.32126e-05
4 *1268:C1 *1311:A1 0.000277223
5 *1268:C1 *146:44 3.7712e-05
6 *1268:C1 *150:6 4.66108e-05
7 *1268:C1 *150:14 0.000112123
8 *1268:B1 *1268:C1 4.82919e-05
9 *1307:B *1268:C1 0.000347911
10 *1475:A *1268:C1 4.99619e-05
*RES
1 *1267:X *1268:C1 12.585 
*END

*D_NET *136 0.00353659
*CONN
*I *1275:B1 I *D sky130_fd_sc_hd__o22a_1
*I *1268:X O *D sky130_fd_sc_hd__a221o_1
*CAP
1 *1275:B1 0.000724318
2 *1268:X 0.000724318
3 *1275:B1 *1275:B2 9.53428e-06
4 *1275:B1 *1288:A1 1.46744e-05
5 *1275:B1 *1288:S 0.000360357
6 *1275:B1 *146:44 0.000272978
7 *1275:B1 *204:63 1.91597e-05
8 *1275:B1 *204:80 0.000616051
9 *1242:B *1275:B1 3.63158e-05
10 *1243:A2 *1275:B1 4.00541e-06
11 *1266:B2 *1275:B1 0.000159741
12 *1268:A2 *1275:B1 0.000347023
13 *97:52 *1275:B1 0.000248114
*RES
1 *1268:X *1275:B1 19.445 
*END

*D_NET *137 0.00208293
*CONN
*I *1270:C1 I *D sky130_fd_sc_hd__a221o_1
*I *1269:X O *D sky130_fd_sc_hd__a221o_1
*CAP
1 *1270:C1 0.000419108
2 *1269:X 0.000419108
3 *1270:C1 *1220:A 4.77757e-05
4 *1270:C1 *1221:A_N 6.48629e-05
5 *1270:C1 *1269:C1 0
6 *1270:C1 *1438:A 4.66108e-05
7 *1270:C1 *190:10 8.65961e-05
8 *1270:C1 *201:122 0.0001947
9 *1232:C *1270:C1 2.8185e-05
10 *1241:D1 *1270:C1 0.000680812
11 *1269:A2 *1270:C1 1.16578e-05
12 *92:10 *1270:C1 8.35106e-05
*RES
1 *1269:X *1270:C1 14.375 
*END

*D_NET *138 0.00124558
*CONN
*I *1274:B1 I *D sky130_fd_sc_hd__a2111o_1
*I *1270:X O *D sky130_fd_sc_hd__a221o_1
*CAP
1 *1274:B1 0.000349066
2 *1270:X 0.000349066
3 *1274:B1 *1281:A0 6.18754e-05
4 *1274:B1 *1367:RESET_B 0.000421319
5 *1274:B1 *171:125 3.42142e-05
6 *1274:B1 *190:40 3.00381e-05
7 *1250:C1 *1274:B1 0
*RES
1 *1270:X *1274:B1 14.64 
*END

*D_NET *139 0.00196956
*CONN
*I *1274:C1 I *D sky130_fd_sc_hd__a2111o_1
*I *1271:X O *D sky130_fd_sc_hd__a22o_1
*CAP
1 *1274:C1 0.000749571
2 *1271:X 0.000749571
3 *1274:C1 *1262:B2 0
4 *1274:C1 *1271:A1 0
5 *1274:C1 *1271:B2 0
6 *1274:C1 *1331:A0 0
7 *1274:C1 *1340:A0 0
8 *1274:C1 *1395:RESET_B 0.000161529
9 *1274:C1 *171:125 0
10 *1274:C1 *180:37 0
11 *1274:C1 *190:33 4.03804e-05
12 *1274:C1 *190:40 0.000108761
13 *1274:C1 *206:28 0
14 *1274:C1 *207:78 0.000159747
15 *1274:C1 *229:10 0
16 *1411:D *1274:C1 0
*RES
1 *1271:X *1274:C1 20.385 
*END

*D_NET *140 0.00373506
*CONN
*I *1273:C1 I *D sky130_fd_sc_hd__a221o_1
*I *1272:X O *D sky130_fd_sc_hd__a22o_1
*CAP
1 *1273:C1 0.00152288
2 *1272:X 0.00152288
3 *1273:C1 *1216:A0 9.80032e-06
4 *1273:C1 *1303:A0 4.07937e-05
5 *1273:C1 *1352:RESET_B 3.34235e-05
6 *1273:C1 *1427:A 0.000123295
7 *1273:C1 *207:64 7.54262e-05
8 *1273:C1 *239:8 0.000186204
9 *1273:C1 *274:12 7.3664e-05
10 *1216:S *1273:C1 0.00011577
11 *1273:B1 *1273:C1 3.09233e-05
12 *106:35 *1273:C1 0
*RES
1 *1272:X *1273:C1 26.19 
*END

*D_NET *141 0.00142801
*CONN
*I *1274:D1 I *D sky130_fd_sc_hd__a2111o_1
*I *1273:X O *D sky130_fd_sc_hd__a221o_1
*CAP
1 *1274:D1 0.00036371
2 *1273:X 0.00036371
3 *1274:D1 *1275:B2 9.14049e-05
4 *1274:D1 *1321:A1 0.000170396
5 *1274:D1 *1367:RESET_B 8.23457e-05
6 *1274:D1 *171:125 9.30717e-05
7 *1249:A2 *1274:D1 3.03684e-05
8 *1395:D *1274:D1 0.000232999
*RES
1 *1273:X *1274:D1 14.985 
*END

*D_NET *142 0.00572137
*CONN
*I *1275:B2 I *D sky130_fd_sc_hd__o22a_1
*I *1274:X O *D sky130_fd_sc_hd__a2111o_1
*CAP
1 *1275:B2 0.00114378
2 *1274:X 0.00114378
3 *1275:B2 *1270:B2 1.1561e-05
4 *1275:B2 *1280:A1 0
5 *1275:B2 *1281:A0 0.000288696
6 *1275:B2 *1316:S 6.52906e-05
7 *1275:B2 *1320:A0 0
8 *1275:B2 *1320:S 0
9 *1275:B2 *1321:S 0
10 *1275:B2 *1367:RESET_B 7.06865e-05
11 *1275:B2 *169:33 0
12 *1275:B2 *171:125 0.000588488
13 *1275:B2 *184:72 9.86611e-05
14 *1275:B2 *186:76 8.09021e-06
15 *1275:B2 *190:40 4.92062e-05
16 *1275:B2 *205:35 0
17 *1275:B2 *207:104 0
18 *1219:A2 *1275:B2 0.000347364
19 *1242:B *1275:B2 0.000278111
20 *1243:A2 *1275:B2 8.31082e-05
21 *1249:A2 *1275:B2 0.000373479
22 *1270:B1 *1275:B2 9.37731e-05
23 *1274:D1 *1275:B2 9.14049e-05
24 *1275:B1 *1275:B2 9.53428e-06
25 *1362:D *1275:B2 6.55328e-05
26 *1390:D *1275:B2 0.000106259
27 *88:42 *1275:B2 0.000777902
28 *97:52 *1275:B2 2.66586e-05
*RES
1 *1274:X *1275:B2 38.52 
*END

*D_NET *143 0.000415425
*CONN
*I *1276:A0 I *D sky130_fd_sc_hd__mux2_1
*I *1275:X O *D sky130_fd_sc_hd__o22a_1
*CAP
1 *1276:A0 0.000135696
2 *1275:X 0.000135696
3 *1276:A0 *205:35 0.000134531
4 *1266:B2 *1276:A0 0
5 *97:52 *1276:A0 9.50342e-06
*RES
1 *1275:X *1276:A0 10.11 
*END

*D_NET *144 0.00683498
*CONN
*I *1281:S I *D sky130_fd_sc_hd__mux2_1
*I *1278:S I *D sky130_fd_sc_hd__mux2_1
*I *1280:S I *D sky130_fd_sc_hd__mux2_1
*I *1279:S I *D sky130_fd_sc_hd__mux2_1
*I *1277:Y O *D sky130_fd_sc_hd__nand2_2
*CAP
1 *1281:S 0.000253673
2 *1278:S 0.000150855
3 *1280:S 5.82017e-05
4 *1279:S 0.000249985
5 *1277:Y 0
6 *144:40 0.000549551
7 *144:29 0.000601204
8 *144:6 0.000647964
9 *1278:S *1243:B1_N 0.000138743
10 *1278:S *1278:A0 2.30292e-05
11 *1278:S *1278:A1 4.99619e-05
12 *1279:S *1254:A1 0.000153816
13 *1279:S *1277:B 0.000116158
14 *1279:S *1279:A0 0.000153816
15 *1279:S *1314:S 6.28765e-05
16 *1279:S *184:48 0.000207092
17 *1279:S *204:20 0.000193806
18 *1279:S *204:164 0.000113237
19 *1279:S *216:14 3.74161e-05
20 *1280:S *1366:CLK 0.000316415
21 *1280:S *186:76 0.00035215
22 *1281:S *1360:CLK 4.66108e-05
23 *1281:S *195:54 0.000127373
24 *144:29 *1219:B2 0.000140905
25 *144:29 *1313:S 0.000126569
26 *144:29 *1314:S 8.97486e-05
27 *144:29 *1356:CLK 5.5761e-05
28 *144:29 *186:76 0.000197264
29 *144:29 *204:20 0.000498373
30 *144:40 *195:54 0.000210846
31 *144:40 *195:56 0.00015829
32 *144:40 *204:20 7.81859e-05
33 *144:40 *204:24 0
34 *144:40 *204:63 0
35 *1243:A2 *1278:S 0.000617727
36 *1360:D *1281:S 0
37 *1363:D *1281:S 5.73739e-05
*RES
1 *1277:Y *144:6 3.6 
2 *144:6 *1279:S 10.875 
3 *144:6 *144:29 13.16 
4 *144:29 *1280:S 4.81 
5 *144:29 *144:40 6.185 
6 *144:40 *1278:S 9.225 
7 *144:40 *1281:S 8.115 
*END

*D_NET *145 0.0101472
*CONN
*I *1283:S I *D sky130_fd_sc_hd__mux2_1
*I *1285:S I *D sky130_fd_sc_hd__mux2_1
*I *1284:S I *D sky130_fd_sc_hd__mux2_1
*I *1286:S I *D sky130_fd_sc_hd__mux2_1
*I *1282:Y O *D sky130_fd_sc_hd__nand2_2
*CAP
1 *1283:S 0.000102021
2 *1285:S 0.0010151
3 *1284:S 8.80348e-05
4 *1286:S 0.000741697
5 *1282:Y 6.36179e-05
6 *145:42 0.00114698
7 *145:20 0.00129173
8 *145:8 0.000555476
9 *1283:S *1278:A0 0.000243758
10 *1283:S *1283:A0 0.000105849
11 *1283:S *1356:RESET_B 2.25075e-05
12 *1283:S *185:25 0.000160641
13 *1283:S *186:76 0.000160641
14 *1284:S *1284:A1 3.95724e-05
15 *1284:S *174:44 2.75145e-05
16 *1284:S *174:50 4.21973e-05
17 *1285:S *1282:B 1.29866e-05
18 *1285:S *1364:CLK 0.000219316
19 *1285:S *171:135 0.000186358
20 *1286:S *1252:A1 0.000192125
21 *1286:S *1252:D1 1.1392e-05
22 *1286:S *1281:A0 0.000118081
23 *1286:S *174:50 0.000158072
24 *145:8 *176:12 4.92062e-05
25 *145:20 *1278:A0 0.00117711
26 *145:20 *1283:A0 3.76625e-05
27 *145:20 *1356:RESET_B 7.90039e-05
28 *145:20 *1365:RESET_B 0.000235585
29 *145:20 *1425:A 0.00117754
30 *145:20 *184:109 8.60912e-05
31 *145:42 *1278:A0 6.21553e-05
32 *145:42 *1283:A0 3.67779e-05
33 *1219:A2 *1285:S 0.000155458
34 *1252:A2 *1286:S 0.000120655
35 *1253:C *1286:S 2.77283e-05
36 *1364:D *1285:S 3.94592e-05
37 *102:29 *1286:S 0.00015712
*RES
1 *1282:Y *145:8 4.395 
2 *145:8 *145:20 20.3 
3 *145:20 *1286:S 14.41 
4 *145:20 *1284:S 3.445 
5 *145:8 *145:42 0.87 
6 *145:42 *1285:S 16.95 
7 *145:42 *1283:S 7.995 
*END

*D_NET *146 0.00729461
*CONN
*I *1291:S I *D sky130_fd_sc_hd__mux2_1
*I *1289:S I *D sky130_fd_sc_hd__mux2_1
*I *1288:S I *D sky130_fd_sc_hd__mux2_1
*I *1290:S I *D sky130_fd_sc_hd__mux2_1
*I *1287:Y O *D sky130_fd_sc_hd__nand2_2
*CAP
1 *1291:S 0
2 *1289:S 0.000360966
3 *1288:S 0.000123951
4 *1290:S 0.000264321
5 *1287:Y 0
6 *146:44 0.00119854
7 *146:19 0.0010206
8 *146:6 0.000323399
9 *1288:S *1288:A1 4.99619e-05
10 *1288:S *168:25 0.000284951
11 *1289:S *1289:A1 1.83756e-05
12 *1289:S *1291:A0 2.49909e-05
13 *1289:S *1305:S 4.82863e-05
14 *1289:S *1306:A0 0.00011379
15 *1289:S *1306:S 0
16 *1289:S *1371:RESET_B 0.00018305
17 *1289:S *1382:RESET_B 0.000204463
18 *1289:S *1386:CLK 0
19 *1289:S *1421:A 0.000335865
20 *1289:S *183:28 0.000137571
21 *1289:S *208:68 5.83121e-06
22 *1290:S *1287:B 3.63701e-06
23 *1290:S *1290:A0 1.19928e-05
24 *1290:S *1290:A1 2.75229e-05
25 *1290:S *1368:CLK 0
26 *1290:S *196:77 6.65891e-05
27 *1290:S *204:103 8.41703e-06
28 *146:19 *1287:B 2.88416e-05
29 *146:19 *1301:A0 8.53113e-06
30 *146:19 *168:25 4.48373e-06
31 *146:19 *208:54 4.9968e-05
32 *146:44 *1268:A1 8.25254e-05
33 *146:44 *1301:A0 6.21553e-05
34 *146:44 *1311:A1 0.000338173
35 *146:44 *150:6 0.000124895
36 *146:44 *196:77 1.44259e-05
37 *146:44 *208:62 9.27255e-06
38 *146:44 *208:68 0.000184591
39 *146:44 *266:14 7.49727e-06
40 *1257:C1 *1290:S 0.000454239
41 *1268:A2 *1288:S 8.49205e-05
42 *1268:A2 *1290:S 1.71013e-05
43 *1268:A2 *146:19 7.36484e-05
44 *1268:A2 *146:44 2.64763e-05
45 *1268:B1 *146:44 1.61831e-05
46 *1268:C1 *146:44 3.7712e-05
47 *1275:B1 *1288:S 0.000360357
48 *1275:B1 *146:44 0.000272978
49 *1370:D *1290:S 9.36617e-05
50 *1387:D *146:44 0.000124895
*RES
1 *1287:Y *146:6 3.6 
2 *146:6 *1290:S 10.245 
3 *146:6 *146:19 1.635 
4 *146:19 *1288:S 8.31 
5 *146:19 *146:44 17.255 
6 *146:44 *1289:S 14.765 
7 *146:44 *1291:S 1.6 
*END

*D_NET *147 0.00595725
*CONN
*I *1295:S I *D sky130_fd_sc_hd__mux2_1
*I *1296:S I *D sky130_fd_sc_hd__mux2_1
*I *1293:S I *D sky130_fd_sc_hd__mux2_1
*I *1294:S I *D sky130_fd_sc_hd__mux2_1
*I *1292:Y O *D sky130_fd_sc_hd__nand2_2
*CAP
1 *1295:S 0.000309504
2 *1296:S 0.000248419
3 *1293:S 7.55065e-05
4 *1294:S 5.03213e-05
5 *1292:Y 9.96714e-05
6 *147:40 0.00123762
7 *147:12 0.000341307
8 *147:10 0.000994845
9 *1293:S *1372:RESET_B 0
10 *1294:S *1245:B2 2.68464e-05
11 *1295:S *1295:A0 8.57024e-05
12 *1295:S *1316:A0 0.000158072
13 *1295:S *182:19 3.77199e-05
14 *1295:S *182:29 4.19967e-05
15 *1295:S *182:92 2.24423e-05
16 *1295:S *208:31 0
17 *1296:S *1296:A0 0
18 *1296:S *1454:A 0.000183205
19 *1296:S *182:10 0
20 *1296:S *182:19 0.00010344
21 *1296:S *202:8 0
22 *1296:S *208:31 0
23 *147:10 *1222:C 1.34361e-05
24 *147:10 *1230:B2 0
25 *147:10 *1292:A 0.000157588
26 *147:12 *1245:A1 9.47267e-06
27 *147:12 *1245:B2 1.91597e-05
28 *147:12 *1293:A0 0.000421171
29 *147:40 *1293:A0 0.000163204
30 *147:40 *1299:A0 2.86265e-06
31 *147:40 *1309:A1 0.000134429
32 *147:40 *1374:CLK 8.67476e-05
33 *147:40 *1374:RESET_B 2.56999e-05
34 *147:40 *173:101 4.43682e-05
35 *1245:B1 *1293:S 0.000136877
36 *1245:B1 *147:12 0.000121023
37 *1247:C1 *147:12 0.000311282
38 *1247:C1 *147:40 0.000226373
39 *1373:D *1294:S 0
40 *1374:D *1295:S 6.69341e-05
*RES
1 *1292:Y *147:10 7.745 
2 *147:10 *147:12 5.625 
3 *147:12 *1294:S 2.41 
4 *147:12 *1293:S 7.235 
5 *147:10 *147:40 11.885 
6 *147:40 *1296:S 9.06 
7 *147:40 *1295:S 10.065 
*END

*D_NET *148 0.00527669
*CONN
*I *1298:S I *D sky130_fd_sc_hd__mux2_1
*I *1301:S I *D sky130_fd_sc_hd__mux2_1
*I *1300:S I *D sky130_fd_sc_hd__mux2_1
*I *1299:S I *D sky130_fd_sc_hd__mux2_1
*I *1297:Y O *D sky130_fd_sc_hd__nand2_2
*CAP
1 *1298:S 0.000143385
2 *1301:S 0.000291101
3 *1300:S 0.000155108
4 *1299:S 0.000106331
5 *1297:Y 0
6 *148:32 0.000683487
7 *148:14 0.000592754
8 *148:6 0.000580316
9 *1298:S *1298:A0 1.83847e-05
10 *1298:S *1298:A1 2.11084e-05
11 *1298:S *195:12 0.0001249
12 *1299:S *176:28 0.000315527
13 *1299:S *196:77 4.82863e-05
14 *1300:S *1300:A1 3.00381e-05
15 *1300:S *172:67 5.05521e-05
16 *1300:S *176:28 0.000223011
17 *1300:S *196:77 4.66108e-05
18 *1300:S *196:90 0.000148084
19 *1301:S *1268:A1 5.4003e-05
20 *1301:S *1301:A1 0.000110683
21 *1301:S *195:12 4.82863e-05
22 *1301:S *196:62 0.000169652
23 *1301:S *196:77 2.75145e-05
24 *1301:S *258:8 9.66106e-05
25 *148:14 *182:92 0
26 *148:14 *194:10 0.000143266
27 *148:14 *196:77 0.000402718
28 *148:14 *208:54 0.000241927
29 *148:32 *1298:A0 0
30 *148:32 *1301:A0 0
31 *148:32 *1368:RESET_B 0
32 *148:32 *196:77 0.000247664
33 *148:32 *208:54 3.68596e-05
34 *148:32 *255:16 0
35 *1368:D *148:32 0.00011852
*RES
1 *1297:Y *148:6 3.6 
2 *148:6 *148:14 11.585 
3 *148:14 *1299:S 4.465 
4 *148:14 *1300:S 5.5 
5 *148:6 *148:32 7.97 
6 *148:32 *1301:S 12.425 
7 *148:32 *1298:S 4.465 
*END

*D_NET *149 0.00670051
*CONN
*I *1306:S I *D sky130_fd_sc_hd__mux2_1
*I *1305:S I *D sky130_fd_sc_hd__mux2_1
*I *1303:S I *D sky130_fd_sc_hd__mux2_1
*I *1304:S I *D sky130_fd_sc_hd__mux2_1
*I *1302:Y O *D sky130_fd_sc_hd__nand2_2
*CAP
1 *1306:S 0.000249725
2 *1305:S 0.000458488
3 *1303:S 0
4 *1304:S 0.000572768
5 *1302:Y 3.4179e-05
6 *149:24 0.00145223
7 *149:10 0.00141226
8 *149:8 0.000358221
9 *1304:S *1236:C 0
10 *1304:S *1247:A1 0.000458855
11 *1304:S *1304:A1 4.82863e-05
12 *1304:S *1421:A 0.000352629
13 *1304:S *1445:A 0.000196048
14 *1305:S *1289:A0 4.57056e-05
15 *1305:S *1289:A1 2.39461e-05
16 *1305:S *1305:A0 8.48308e-05
17 *1305:S *1305:A1 5.05437e-05
18 *1306:S *1302:A 2.09283e-05
19 *1306:S *1386:CLK 6.47468e-05
20 *1306:S *204:105 0
21 *149:8 *1302:A 4.77719e-05
22 *149:24 *1222:B 1.14262e-05
23 *149:24 *1222:D_N 0.000188164
24 *149:24 *1293:A0 0.000108124
25 *149:24 *1421:A 1.67235e-05
26 *149:24 *1445:A 3.75126e-05
27 *149:24 *200:50 0.00015635
28 *149:24 *201:50 1.25877e-05
29 *1267:B1 *1306:S 0
30 *1289:S *1305:S 4.82863e-05
31 *1289:S *1306:S 0
32 *1302:B *1306:S 1.92979e-05
33 *1386:D *1306:S 9.16019e-05
34 *93:14 *149:24 7.82716e-05
*RES
1 *1302:Y *149:8 4.05 
2 *149:8 *149:10 1.125 
3 *149:10 *149:24 16.85 
4 *149:24 *1304:S 17 
5 *149:24 *1303:S 1.6 
6 *149:10 *1305:S 10.62 
7 *149:8 *1306:S 8.295 
*END

*D_NET *150 0.00333774
*CONN
*I *1311:S I *D sky130_fd_sc_hd__mux2_1
*I *1310:S I *D sky130_fd_sc_hd__mux2_1
*I *1308:S I *D sky130_fd_sc_hd__mux2_1
*I *1309:S I *D sky130_fd_sc_hd__mux2_1
*I *1307:Y O *D sky130_fd_sc_hd__nand2_1
*CAP
1 *1311:S 0
2 *1310:S 3.35425e-05
3 *1308:S 1.65033e-05
4 *1309:S 0.000163203
5 *1307:Y 2.45901e-05
6 *150:18 0.000384252
7 *150:14 0.000715239
8 *150:6 0.000501741
9 *1308:S *176:28 4.66108e-05
10 *1308:S *182:47 2.49909e-05
11 *1309:S *1230:B2 0.000129696
12 *1309:S *1299:A0 8.53554e-05
13 *1309:S *1309:A1 3.95724e-05
14 *1309:S *182:47 0.000204463
15 *1309:S *264:8 9.29751e-06
16 *1310:S *172:35 5.4155e-06
17 *1310:S *172:50 6.02119e-05
18 *150:6 *208:68 1.61831e-05
19 *150:14 *1307:A 0
20 *150:14 *1310:A1 0
21 *150:14 *172:35 0.000201508
22 *150:14 *172:50 2.05056e-05
23 *150:14 *183:12 3.86607e-05
24 *150:14 *183:61 0
25 *150:14 *250:10 0
26 *150:18 *1230:B2 2.25075e-05
27 *150:18 *182:47 5.23362e-05
28 *150:18 *191:90 2.24905e-05
29 *1268:C1 *150:6 4.66108e-05
30 *1268:C1 *150:14 0.000112123
31 *1307:B *150:6 2.16833e-05
32 *1377:D *150:18 5.20968e-05
33 *93:29 *150:14 0.000161452
34 *93:29 *150:18 0
35 *100:42 *150:18 0
36 *100:50 *150:14 0
37 *146:44 *150:6 0.000124895
*RES
1 *1307:Y *150:6 2.74 
2 *150:6 *150:14 12.91 
3 *150:14 *150:18 5.93 
4 *150:18 *1309:S 8.445 
5 *150:18 *1308:S 4.05 
6 *150:14 *1310:S 2.41 
7 *150:6 *1311:S 1.6 
*END

*D_NET *151 0.00404075
*CONN
*I *1313:S I *D sky130_fd_sc_hd__mux2_1
*I *1314:S I *D sky130_fd_sc_hd__mux2_1
*I *1315:S I *D sky130_fd_sc_hd__mux2_1
*I *1316:S I *D sky130_fd_sc_hd__mux2_1
*I *1312:Y O *D sky130_fd_sc_hd__nand2_1
*CAP
1 *1313:S 8.57208e-05
2 *1314:S 0.000144876
3 *1315:S 0
4 *1316:S 0.000165437
5 *1312:Y 0
6 *151:32 0.000801164
7 *151:8 0.000250431
8 *151:4 0.00065556
9 *1313:S *1356:CLK 0.000192876
10 *1313:S *194:45 5.23362e-05
11 *1314:S *1250:A1 9.50342e-06
12 *1314:S *1277:B 3.76269e-05
13 *1314:S *1393:CLK 9.50342e-06
14 *1314:S *194:45 0.000109009
15 *1314:S *194:47 0.00021831
16 *1314:S *194:49 0.000129728
17 *1314:S *268:10 0.000118513
18 *1316:S *1315:A0 1.07797e-05
19 *1316:S *1316:A0 4.99619e-05
20 *1316:S *1316:A1 1.83756e-05
21 *1316:S *1320:A0 0
22 *151:32 *1388:CLK 0.000253954
23 *151:32 *194:43 0.000170127
24 *151:32 *205:25 2.19562e-06
25 *151:32 *205:35 8.73389e-06
26 *1275:B2 *1316:S 6.52906e-05
27 *1279:S *1314:S 6.28765e-05
28 *1390:D *1316:S 3.09233e-05
29 *88:27 *1316:S 4.82919e-05
30 *88:27 *151:8 8.65905e-05
31 *88:36 *151:8 3.57349e-05
32 *144:29 *1313:S 0.000126569
33 *144:29 *1314:S 8.97486e-05
*RES
1 *1312:Y *151:4 1.6 
2 *151:4 *151:8 1.755 
3 *151:8 *1316:S 9.08 
4 *151:8 *1315:S 1.6 
5 *151:4 *151:32 9.35 
6 *151:32 *1314:S 9.06 
7 *151:32 *1313:S 6.51 
*END

*D_NET *152 0.00508892
*CONN
*I *1319:S I *D sky130_fd_sc_hd__mux2_1
*I *1320:S I *D sky130_fd_sc_hd__mux2_1
*I *1321:S I *D sky130_fd_sc_hd__mux2_1
*I *1318:S I *D sky130_fd_sc_hd__mux2_1
*I *1317:Y O *D sky130_fd_sc_hd__nand2_2
*CAP
1 *1319:S 0
2 *1320:S 0.000482956
3 *1321:S 0.000212592
4 *1318:S 0.000165471
5 *1317:Y 5.01009e-05
6 *152:29 0.00107134
7 *152:25 0.000668243
8 *152:8 0.000508024
9 *1318:S *1252:A1 0.00033517
10 *1318:S *175:50 0.000172151
11 *1318:S *175:64 7.30547e-05
12 *1318:S *180:25 6.71882e-05
13 *1320:S *1270:B2 7.45881e-05
14 *1320:S *169:12 0
15 *1320:S *184:72 7.16263e-05
16 *1320:S *190:10 0
17 *1321:S *1270:B2 1.82476e-05
18 *1321:S *1286:A1 6.07223e-05
19 *1321:S *190:16 0
20 *1321:S *207:104 3.17398e-05
21 *1321:S *207:117 2.66935e-05
22 *152:25 *1252:A1 0.00015046
23 *152:25 *1252:D1 0.000116853
24 *152:25 *1319:A0 6.71882e-05
25 *152:25 *1365:CLK 0
26 *152:29 *246:8 0.00018854
27 *1242:C *152:25 3.70557e-05
28 *1249:A2 *1321:S 0
29 *1249:A2 *152:8 1.34503e-05
30 *1252:A2 *1318:S 4.65643e-05
31 *1252:A2 *152:25 4.39079e-05
32 *1252:B1 *152:25 1.00941e-05
33 *1252:C1 *152:25 0.000115464
34 *1253:C *152:25 0.000116853
35 *1275:B2 *1320:S 0
36 *1275:B2 *1321:S 0
37 *1317:B *152:8 2.16917e-05
38 *1367:D *1321:S 0
39 *1391:D *1320:S 0
40 *89:25 *152:29 6.0011e-05
41 *102:37 *152:8 1.08758e-05
*RES
1 *1317:Y *152:8 4.395 
2 *152:8 *1318:S 8.67 
3 *152:8 *152:25 8.615 
4 *152:25 *152:29 8.315 
5 *152:29 *1321:S 7.785 
6 *152:29 *1320:S 11.865 
7 *152:25 *1319:S 1.6 
*END

*D_NET *153 0.00530196
*CONN
*I *1324:S I *D sky130_fd_sc_hd__mux2_1
*I *1326:S I *D sky130_fd_sc_hd__mux2_1
*I *1325:S I *D sky130_fd_sc_hd__mux2_1
*I *1323:S I *D sky130_fd_sc_hd__mux2_1
*I *1322:Y O *D sky130_fd_sc_hd__nand2_2
*CAP
1 *1324:S 0.00051788
2 *1326:S 8.80096e-05
3 *1325:S 0.00042835
4 *1323:S 0.000133716
5 *1322:Y 0
6 *153:42 0.001001
7 *153:12 0.000746091
8 *153:6 0.000579137
9 *1323:S *1323:A0 8.51862e-05
10 *1323:S *214:18 6.36578e-05
11 *1324:S *1326:A1 4.87479e-05
12 *1324:S *1421:A 0.000332744
13 *1325:S *187:29 4.33674e-05
14 *1325:S *187:42 4.64656e-05
15 *1326:S *188:47 7.08554e-05
16 *153:12 *1322:A 0
17 *153:12 *1398:RESET_B 0
18 *153:12 *1416:CLK 0
19 *153:12 *1421:A 3.09233e-05
20 *153:12 *214:18 0.000169058
21 *153:42 *1322:A 0
22 *153:42 *1326:A1 1.59888e-05
23 *153:42 *1348:A0 1.85103e-05
24 *153:42 *1421:A 0.0007028
25 *1396:D *153:12 0
26 *1416:D *153:42 9.54469e-05
27 *107:18 *1324:S 8.40213e-05
*RES
1 *1322:Y *153:6 3.6 
2 *153:6 *153:12 3.465 
3 *153:12 *1323:S 6.12 
4 *153:12 *1325:S 8.91 
5 *153:6 *153:42 9.075 
6 *153:42 *1326:S 5.1 
7 *153:42 *1324:S 13.155 
*END

*D_NET *154 0.00450234
*CONN
*I *1331:S I *D sky130_fd_sc_hd__mux2_1
*I *1328:S I *D sky130_fd_sc_hd__mux2_1
*I *1330:S I *D sky130_fd_sc_hd__mux2_1
*I *1329:S I *D sky130_fd_sc_hd__mux2_1
*I *1327:Y O *D sky130_fd_sc_hd__nand2_1
*CAP
1 *1331:S 0.000558491
2 *1328:S 0
3 *1330:S 0.000573484
4 *1329:S 7.53272e-05
5 *1327:Y 1.53159e-05
6 *154:21 0.00062151
7 *154:19 0.000764245
8 *154:6 0.000248372
9 *1330:S *1328:A0 1.34361e-05
10 *1330:S *1328:A1 9.50342e-06
11 *1331:S *189:69 0.000369845
12 *1331:S *219:8 2.49909e-05
13 *154:6 *156:16 1.12578e-05
14 *154:6 *206:115 7.00889e-06
15 *154:19 *1234:B2 0.000335858
16 *154:19 *1328:A1 4.38051e-05
17 *154:19 *1400:RESET_B 0
18 *154:19 *1424:A 0
19 *154:19 *1425:A 0
20 *154:19 *1426:A 8.47629e-05
21 *154:21 *1328:A1 0.000106655
22 *154:21 *1426:A 3.47837e-05
23 *1327:B *1329:S 7.23635e-05
24 *1327:B *154:6 3.25676e-05
25 *1337:B *1329:S 0.000197264
26 *1337:B *154:6 7.57202e-05
27 *1402:D *1330:S 6.96579e-05
28 *104:40 *1329:S 0.000156118
*RES
1 *1327:Y *154:6 2.395 
2 *154:6 *1329:S 4.135 
3 *154:6 *154:19 6.44 
4 *154:19 *154:21 1.38 
5 *154:21 *1330:S 13.005 
6 *154:21 *1328:S 3.6 
7 *154:19 *1331:S 11.67 
*END

*D_NET *155 0.00721963
*CONN
*I *1336:S I *D sky130_fd_sc_hd__mux2_1
*I *1335:S I *D sky130_fd_sc_hd__mux2_1
*I *1334:S I *D sky130_fd_sc_hd__mux2_1
*I *1333:S I *D sky130_fd_sc_hd__mux2_1
*I *1332:Y O *D sky130_fd_sc_hd__nand2_2
*CAP
1 *1336:S 0.000473635
2 *1335:S 0
3 *1334:S 0.000129957
4 *1333:S 0.000325446
5 *1332:Y 1.97637e-05
6 *155:44 0.00171098
7 *155:10 0.000610072
8 *155:6 0.00141178
9 *1333:S *1333:A1 4.82919e-05
10 *1333:S *1342:A 6.44256e-05
11 *1333:S *175:76 9.87538e-05
12 *1333:S *177:62 7.47215e-05
13 *1333:S *177:76 0.000266618
14 *1333:S *187:78 0
15 *1333:S *207:18 0
16 *1334:S *173:12 7.48863e-05
17 *1334:S *173:22 5.83121e-06
18 *1334:S *175:70 4.40899e-05
19 *1334:S *175:76 3.59794e-05
20 *1336:S *1260:A1 0
21 *1336:S *1271:B2 0
22 *1336:S *1336:A0 0.000259282
23 *1336:S *1336:A1 0
24 *1336:S *171:38 0
25 *1336:S *171:40 0
26 *1336:S *179:16 0.000123225
27 *155:6 *206:44 4.87465e-06
28 *155:10 *206:34 1.91597e-05
29 *155:10 *206:36 1.91597e-05
30 *155:10 *206:44 0.000118081
31 *155:44 *1354:CLK 4.80182e-05
32 *155:44 *171:38 5.16348e-05
33 *155:44 *171:81 0.000243525
34 *155:44 *206:34 0.000257815
35 *1240:A2 *1333:S 0.00011379
36 *1240:A2 *1334:S 0.000226999
37 *1260:A2 *1336:S 0.000124895
38 *1260:A2 *155:44 0
39 *1262:B1 *155:44 3.18219e-05
40 *1262:C1 *155:44 0
41 *104:12 *155:44 0
42 *106:47 *155:44 1.13785e-05
43 *110:10 *1334:S 1.07797e-05
44 *110:14 *1333:S 3.57924e-05
45 *111:34 *155:44 0.000124174
*RES
1 *1332:Y *155:6 1.96 
2 *155:6 *155:10 3.83 
3 *155:10 *1333:S 10.725 
4 *155:10 *1334:S 7.155 
5 *155:6 *155:44 20.29 
6 *155:44 *1335:S 1.6 
7 *155:44 *1336:S 15.005 
*END

*D_NET *156 0.00633435
*CONN
*I *1338:S I *D sky130_fd_sc_hd__mux2_1
*I *1339:S I *D sky130_fd_sc_hd__mux2_1
*I *1341:S I *D sky130_fd_sc_hd__mux2_1
*I *1340:S I *D sky130_fd_sc_hd__mux2_1
*I *1337:Y O *D sky130_fd_sc_hd__nand2_2
*CAP
1 *1338:S 0.000311571
2 *1339:S 0.00042766
3 *1341:S 0
4 *1340:S 2.9058e-05
5 *1337:Y 0
6 *156:29 0.000621563
7 *156:16 0.000648067
8 *156:4 0.000736677
9 *1338:S *1338:A0 0.000238137
10 *1338:S *175:29 0.00015969
11 *1338:S *206:115 8.83166e-05
12 *1338:S *220:8 0.000110007
13 *1339:S *1339:A1 8.40269e-05
14 *1339:S *1452:A 0.000198837
15 *1339:S *175:64 0.000447373
16 *1339:S *206:28 0.000378513
17 *156:16 *1329:A1 4.66108e-05
18 *156:16 *1337:A 4.99619e-05
19 *156:16 *1340:A0 0
20 *156:16 *1401:CLK 8.49205e-05
21 *156:16 *189:88 7.89689e-05
22 *156:16 *206:115 4.82919e-05
23 *156:29 *1331:A0 0.000110644
24 *156:29 *1341:A1 9.50342e-06
25 *156:29 *206:28 0
26 *156:29 *207:78 2.46007e-05
27 *1249:B1 *1339:S 0.000176511
28 *1250:C1 *1339:S 0.000163175
29 *1250:C1 *156:29 0
30 *1327:B *156:16 8.96356e-05
31 *1337:B *156:16 5.51245e-05
32 *1401:D *156:16 0.000121437
33 *1408:D *1338:S 0.000215463
34 *1410:D *156:29 0.000116158
35 *104:40 *156:16 0.000190121
36 *111:34 *1340:S 8.65905e-05
37 *111:34 *156:16 0.000175879
38 *154:6 *156:16 1.12578e-05
*RES
1 *1337:Y *156:4 1.6 
2 *156:4 *156:16 13.795 
3 *156:16 *1340:S 2.395 
4 *156:16 *156:29 8.185 
5 *156:29 *1341:S 1.6 
6 *156:29 *1339:S 13.57 
7 *156:4 *1338:S 13.94 
*END

*D_NET *157 0.00347601
*CONN
*I *1344:S I *D sky130_fd_sc_hd__mux2_1
*I *1346:S I *D sky130_fd_sc_hd__mux2_1
*I *1345:S I *D sky130_fd_sc_hd__mux2_1
*I *1343:S I *D sky130_fd_sc_hd__mux2_1
*I *1342:Y O *D sky130_fd_sc_hd__nand2_1
*CAP
1 *1344:S 8.12594e-06
2 *1346:S 0
3 *1345:S 3.2156e-05
4 *1343:S 0.000352296
5 *1342:Y 9.14793e-05
6 *157:14 0.000545268
7 *157:10 0.000230358
8 *157:6 0.000169148
9 *1344:S *171:36 4.82919e-05
10 *157:6 *171:36 0.000576842
11 *157:10 *1269:B2 0.000180682
12 *157:10 *160:14 3.25831e-05
13 *157:10 *177:116 8.96831e-05
14 *157:10 *234:10 2.30797e-05
15 *157:14 *160:14 0.000358243
16 *157:14 *234:10 0.000139238
17 *1237:A2 *157:6 2.16833e-05
18 *106:60 *1344:S 3.74161e-05
19 *106:60 *157:6 0.000539432
*RES
1 *1342:Y *157:6 6.88 
2 *157:6 *157:10 4.4 
3 *157:10 *157:14 6.185 
4 *157:14 *1343:S 6.88 
5 *157:14 *1345:S 2.05 
6 *157:10 *1346:S 3.6 
7 *157:6 *1344:S 2.05 
*END

*D_NET *158 0.003142
*CONN
*I *1348:S I *D sky130_fd_sc_hd__mux2_1
*I *1351:S I *D sky130_fd_sc_hd__mux2_1
*I *1349:S I *D sky130_fd_sc_hd__mux2_1
*I *1350:S I *D sky130_fd_sc_hd__mux2_1
*I *1347:Y O *D sky130_fd_sc_hd__nand2_1
*CAP
1 *1348:S 1.65021e-05
2 *1351:S 9.22379e-05
3 *1349:S 0.000204067
4 *1350:S 0.000167973
5 *1347:Y 0
6 *158:30 0.000234546
7 *158:8 0.000804913
8 *158:4 0.00055868
9 *1348:S *1348:A0 8.49205e-05
10 *1348:S *206:44 7.40446e-05
11 *1349:S *1349:A1 3.09233e-05
12 *1349:S *1419:CLK 0
13 *1349:S *1419:RESET_B 0
14 *1349:S *173:22 2.25161e-05
15 *1349:S *173:33 4.31921e-05
16 *1349:S *178:47 0
17 *1350:S *1261:A1 0
18 *1350:S *1350:A0 3.09164e-05
19 *1350:S *1350:A1 6.28765e-05
20 *1350:S *1418:RESET_B 0
21 *1351:S *1348:A0 1.42807e-05
22 *158:8 *1261:B2 9.93004e-05
23 *158:8 *1350:A1 3.64998e-06
24 *158:8 *1418:RESET_B 2.26018e-05
25 *158:30 *1347:A 0.000157378
26 *158:30 *1348:A0 8.41307e-05
27 *158:30 *206:44 4.66108e-05
28 *1261:A2 *158:8 6.07575e-06
29 *1261:A2 *158:30 2.01565e-05
30 *1261:B1 *158:8 0.000137524
31 *1261:B1 *158:30 5.12969e-06
32 *1347:B *158:8 1.19928e-05
33 *107:26 *1351:S 5.29829e-05
34 *109:29 *1351:S 5.1875e-05
*RES
1 *1347:Y *158:4 1.6 
2 *158:4 *158:8 7.625 
3 *158:8 *1350:S 6.51 
4 *158:8 *1349:S 7.275 
5 *158:4 *158:30 2.79 
6 *158:30 *1351:S 7.49 
7 *158:30 *1348:S 2.395 
*END

*D_NET *159 0.00497551
*CONN
*I *1456:A I *D sky130_fd_sc_hd__buf_1
*I *1455:A I *D sky130_fd_sc_hd__clkbuf_2
*I *1457:X O *D sky130_fd_sc_hd__buf_1
*CAP
1 *1456:A 0.000921955
2 *1455:A 0.00042691
3 *1457:X 3.61979e-05
4 *159:6 0.00138506
5 *1455:A *1435:A 0
6 *1455:A *1447:A 0.000106344
7 *1455:A *188:14 0.00010219
8 *1455:A *188:16 2.33306e-05
9 *1455:A *192:12 0.000139245
10 *1455:A *196:26 0
11 *1456:A *1222:A 0.000101706
12 *1456:A *1222:C 0.000197264
13 *1456:A *1251:B2 0
14 *1456:A *1293:A0 0.00015421
15 *1456:A *1449:A 0.00119603
16 *1372:D *1456:A 0.000107257
17 *1381:D *1455:A 4.61744e-05
18 *1457:A *1455:A 2.56523e-05
19 *1460:A *1455:A 5.98004e-06
20 *1462:A *1455:A 0
*RES
1 *1457:X *159:6 2.05 
2 *159:6 *1455:A 14.375 
3 *159:6 *1456:A 20.95 
*END

*D_NET *160 0.00771722
*CONN
*I *1454:A I *D sky130_fd_sc_hd__dlymetal6s2s_1
*I *1453:A I *D sky130_fd_sc_hd__buf_2
*I *1458:X O *D sky130_fd_sc_hd__buf_1
*CAP
1 *1454:A 0.00125008
2 *1453:A 0
3 *1458:X 0.00129587
4 *160:14 0.00254595
5 *1454:A *1233:B_N 2.18128e-05
6 *1454:A *1248:B2 0.000177338
7 *1454:A *1260:B2 0.000155928
8 *1454:A *1269:B2 0
9 *1454:A *1296:A0 0
10 *1454:A *1344:A1 0.000104317
11 *1454:A *1353:RESET_B 0.000197207
12 *1454:A *1437:A 0.000339833
13 *1454:A *177:116 0.000117657
14 *1454:A *189:8 5.72091e-05
15 *1454:A *189:21 0
16 *1454:A *189:27 0
17 *1454:A *199:19 0
18 *1454:A *207:8 4.66108e-05
19 *1454:A *209:106 0.000376614
20 *160:14 *1345:A1 7.18738e-05
21 *160:14 *1407:CLK 0
22 *160:14 *177:24 4.9968e-05
23 *160:14 *177:116 0.000131401
24 *160:14 *207:8 8.23457e-05
25 *1216:S *1454:A 0
26 *1251:A2 *1454:A 8.65961e-05
27 *1253:B *1454:A 3.45679e-05
28 *1296:S *1454:A 0.000183205
29 *86:25 *1454:A 0
30 *86:27 *1454:A 0
31 *86:37 *1454:A 0
32 *157:10 *160:14 3.25831e-05
33 *157:14 *160:14 0.000358243
*RES
1 *1458:X *160:14 23.6 
2 *160:14 *1453:A 1.6 
3 *160:14 *1454:A 33.215 
*END

*D_NET *161 0.00138809
*CONN
*I *1452:A I *D sky130_fd_sc_hd__clkbuf_4
*I *1459:X O *D sky130_fd_sc_hd__clkbuf_1
*CAP
1 *1452:A 0.000359561
2 *1459:X 0.000359561
3 *1452:A *1329:A0 2.49909e-05
4 *1452:A *1339:A1 8.57024e-05
5 *1452:A *1423:A 9.05377e-05
6 *1452:A *174:12 0.00021036
7 *1452:A *228:8 5.85354e-05
8 *1339:S *1452:A 0.000198837
*RES
1 *1459:X *1452:A 14.82 
*END

*D_NET *162 0.00177866
*CONN
*I *1471:A I *D sky130_fd_sc_hd__buf_2
*I *1244:A2 I *D sky130_fd_sc_hd__a22o_1
*I *1356:Q O *D sky130_fd_sc_hd__dfrtp_1
*CAP
1 *1471:A 0.000114361
2 *1244:A2 0.000651249
3 *1356:Q 0
4 *162:4 0.00076561
5 *1471:A *1243:B1_N 0
6 rdata[0] *1471:A 2.67022e-05
7 *1244:B2 *1244:A2 0.000220735
8 *1244:B2 *1471:A 0
*RES
1 *1356:Q *162:4 1.6 
2 *162:4 *1244:A2 10.015 
3 *162:4 *1471:A 7.43 
*END

*D_NET *163 0.00137322
*CONN
*I *1472:A I *D sky130_fd_sc_hd__buf_2
*I *1255:A2 I *D sky130_fd_sc_hd__a22o_1
*I *1357:Q O *D sky130_fd_sc_hd__dfrtp_1
*CAP
1 *1472:A 0.000139885
2 *1255:A2 0.000161864
3 *1357:Q 0.000140112
4 *163:8 0.000441861
5 *1255:A2 *186:66 5.11035e-05
6 *1472:A *186:66 7.34364e-05
7 rdata[1] *1255:A2 0.000134296
8 rdata[1] *1472:A 8.90621e-05
9 *1357:D *1255:A2 0.000141599
*RES
1 *1357:Q *163:8 5.085 
2 *163:8 *1255:A2 7.395 
3 *163:8 *1472:A 6.375 
*END

*D_NET *164 0.00103392
*CONN
*I *1473:A I *D sky130_fd_sc_hd__buf_2
*I *1266:A2 I *D sky130_fd_sc_hd__a22o_1
*I *1358:Q O *D sky130_fd_sc_hd__dfrtp_1
*CAP
1 *1473:A 0.00019078
2 *1266:A2 0.000287487
3 *1358:Q 0
4 *164:6 0.000478267
5 *1266:A2 *1266:A1 7.73913e-05
6 *1266:A2 *1276:S 0
7 *1359:D *1266:A2 0
*RES
1 *1358:Q *164:6 3.6 
2 *164:6 *1266:A2 8.55 
3 *164:6 *1473:A 6.465 
*END

*D_NET *165 0.00192196
*CONN
*I *1474:A I *D sky130_fd_sc_hd__buf_2
*I *1276:A1 I *D sky130_fd_sc_hd__mux2_1
*I *1359:Q O *D sky130_fd_sc_hd__dfrtp_1
*CAP
1 *1474:A 0.000306878
2 *1276:A1 0.000427536
3 *1359:Q 0
4 *165:6 0.000734413
5 *1276:A1 *1363:RESET_B 2.46073e-05
6 *1276:A1 *185:77 0.000116853
7 *1276:A1 *195:46 0
8 *1276:A1 *205:35 0.000124895
9 *1474:A *185:77 0.000110683
10 *1474:A *195:46 0
11 *1359:D *1276:A1 7.60965e-05
*RES
1 *1359:Q *165:6 3.6 
2 *165:6 *1276:A1 11.295 
3 *165:6 *1474:A 8.775 
*END

*D_NET *166 0.00572711
*CONN
*I *1277:B I *D sky130_fd_sc_hd__nand2_2
*I *1252:D1 I *D sky130_fd_sc_hd__a2111o_1
*I *1468:X O *D sky130_fd_sc_hd__buf_1
*CAP
1 *1277:B 0.000215636
2 *1252:D1 0.000309827
3 *1468:X 0.000557434
4 *166:10 0.0010829
5 *1252:D1 *1250:A1 0.000158297
6 *1252:D1 *1365:CLK 4.70343e-05
7 *1252:D1 *1393:CLK 7.97083e-05
8 *1252:D1 *206:140 0
9 *1277:B *1250:A1 8.53113e-06
10 *1277:B *1391:RESET_B 4.77082e-05
11 *1277:B *204:20 9.37731e-05
12 *1277:B *205:6 4.66108e-05
13 *1277:B *205:19 3.12176e-05
14 *1277:B *268:10 0.000109995
15 *166:10 *1314:A0 5.83121e-06
16 *166:10 *1391:RESET_B 0.000605469
17 *166:10 *1438:A 0.000149279
18 *166:10 *184:72 4.20028e-05
19 *1242:C *1277:B 2.63122e-05
20 *1251:A2 *166:10 9.17155e-05
21 *1253:B *1252:D1 0.00024756
22 *1253:B *1277:B 2.07184e-05
23 *1253:B *166:10 0.00126252
24 *1253:C *1252:D1 0.00011192
25 *1279:S *1277:B 0.000116158
26 *1286:S *1252:D1 1.1392e-05
27 *1314:S *1277:B 3.76269e-05
28 *1393:D *1252:D1 9.30787e-05
29 *152:25 *1252:D1 0.000116853
*RES
1 *1468:X *166:10 20.625 
2 *166:10 *1252:D1 11.805 
3 *166:10 *1277:B 8.985 
*END

*D_NET *167 0.0040183
*CONN
*I *1468:A I *D sky130_fd_sc_hd__buf_1
*I *1258:C1 I *D sky130_fd_sc_hd__a221o_1
*I *1269:C1 I *D sky130_fd_sc_hd__a221o_1
*I *1469:X O *D sky130_fd_sc_hd__buf_1
*CAP
1 *1468:A 3.05079e-05
2 *1258:C1 0.000370418
3 *1269:C1 5.22331e-05
4 *1469:X 0.000237726
5 *167:31 0.000587487
6 *167:10 0.00047652
7 *1258:C1 *1258:A1 0.000198939
8 *1258:C1 *1258:B2 6.03947e-06
9 *1258:C1 *1316:A0 3.35215e-05
10 *1258:C1 *186:91 0.000137968
11 *1258:C1 *253:10 7.4027e-05
12 *1269:C1 *1269:B2 4.21224e-05
13 *1269:C1 *1296:A0 8.65961e-05
14 *1269:C1 *1296:A1 9.62442e-06
15 *167:10 *1427:A 5.46877e-05
16 *167:10 *1437:A 1.73877e-05
17 *167:10 *197:120 8.40269e-05
18 *167:10 *209:98 4.66742e-05
19 *167:10 *209:126 3.83194e-05
20 *167:10 *254:12 3.09164e-05
21 *167:31 *1296:A0 0.000212726
22 *167:31 *1427:A 2.60986e-05
23 *167:31 *1437:A 4.24292e-06
24 *167:31 *186:91 0.000144873
25 *167:31 *196:90 5.16418e-05
26 *167:31 *254:12 0.000137578
27 *1241:D1 *1269:C1 2.05056e-05
28 *1251:A2 *1468:A 0.000112349
29 *1251:A2 *167:31 0.000122331
30 *1253:B *1468:A 4.65607e-05
31 *1253:B *167:31 4.38278e-05
32 *1258:A2 *1258:C1 0.000315139
33 *1258:B1 *1258:C1 4.82863e-05
34 *1269:B1 *1269:C1 2.49909e-05
35 *1269:B1 *167:10 9.14049e-05
36 *1270:C1 *1269:C1 0
*RES
1 *1469:X *167:10 7.41 
2 *167:10 *1269:C1 5.1 
3 *167:10 *167:31 7.625 
4 *167:31 *1258:C1 13.1 
5 *167:31 *1468:A 2.74 
*END

*D_NET *168 0.00248131
*CONN
*I *1223:B1 I *D sky130_fd_sc_hd__a22o_1
*I *1257:B1 I *D sky130_fd_sc_hd__a221o_1
*I *1287:B I *D sky130_fd_sc_hd__nand2_2
*I *1475:X O *D sky130_fd_sc_hd__buf_1
*CAP
1 *1223:B1 0
2 *1257:B1 0.000259093
3 *1287:B 4.49272e-05
4 *1475:X 4.92979e-05
5 *168:25 0.000583912
6 *168:10 0.000419044
7 *1257:B1 *186:91 0
8 *1257:B1 *204:80 0
9 *1287:B *1368:CLK 4.99918e-05
10 *1287:B *204:103 1.92979e-05
11 *168:10 *1368:CLK 1.88904e-05
12 *168:25 *1288:A1 0.000200615
13 *168:25 *1368:CLK 1.26626e-05
14 *168:25 *204:80 4.35348e-05
15 *168:25 *208:54 0.000359877
16 *168:25 *208:62 8.49205e-05
17 *1223:A2 *1257:B1 0
18 *1268:A2 *168:25 1.33285e-05
19 *1288:S *168:25 0.000284951
20 *1290:S *1287:B 3.63701e-06
21 *92:36 *1257:B1 0
22 *146:19 *1287:B 2.88416e-05
23 *146:19 *168:25 4.48373e-06
*RES
1 *1475:X *168:10 4.2825 
2 *168:10 *1287:B 4.8525 
3 *168:10 *168:25 9.8375 
4 *168:25 *1257:B1 9.53 
5 *168:25 *1223:B1 1.6 
*END

*D_NET *169 0.00828513
*CONN
*I *1282:B I *D sky130_fd_sc_hd__nand2_2
*I *1219:B1 I *D sky130_fd_sc_hd__a22o_1
*I *1257:A2 I *D sky130_fd_sc_hd__a221o_1
*I *1470:X O *D sky130_fd_sc_hd__clkbuf_2
*CAP
1 *1282:B 0.000448703
2 *1219:B1 0
3 *1257:A2 0.000343847
4 *1470:X 0.000806724
5 *169:33 0.00121367
6 *169:12 0.00191554
7 *1257:A2 *1257:A1 0.000143159
8 *1257:A2 *1285:A1 9.44092e-05
9 *1282:B *1278:A0 0.00012297
10 *1282:B *1356:CLK 0
11 *1282:B *1364:CLK 6.83538e-05
12 *169:12 *1226:A 0
13 *169:12 *1315:A0 0
14 *169:12 *1320:A0 0
15 *169:12 *1366:RESET_B 5.74016e-05
16 *169:12 *1391:CLK 0.0002014
17 *169:12 *1438:A 0.000312778
18 *169:12 *190:10 0.00013994
19 *169:12 *205:35 0
20 *169:33 *1280:A1 9.14155e-05
21 *169:33 *1285:A1 3.49015e-05
22 *169:33 *1364:CLK 3.83194e-05
23 *169:33 *171:135 0.000137492
24 *169:33 *186:76 3.09164e-05
25 *169:33 *205:35 0
26 *1219:A2 *169:33 0.000575172
27 *1242:A *169:33 0.000124007
28 *1275:B2 *169:33 0
29 *1285:S *1282:B 1.29866e-05
30 *1320:S *169:12 0
31 *1364:D *1282:B 0.00011584
32 *1366:D *169:33 5.20968e-05
33 *1391:D *169:12 0.000180541
34 *89:12 *169:12 8.8266e-05
35 *89:25 *169:12 8.8266e-05
36 *97:35 *169:12 0.000846022
*RES
1 *1470:X *169:12 25.805 
2 *169:12 *1257:A2 6.9925 
3 *169:12 *169:33 17.305 
4 *169:33 *1219:B1 1.6 
5 *169:33 *1282:B 12.425 
*END

*D_NET *170 0.00667627
*CONN
*I *1449:A I *D sky130_fd_sc_hd__buf_1
*I *1448:A I *D sky130_fd_sc_hd__clkbuf_2
*I *1460:X O *D sky130_fd_sc_hd__buf_1
*CAP
1 *1449:A 0.00134641
2 *1448:A 0.00010326
3 *1460:X 0.000617168
4 *170:8 0.00206683
5 *1448:A *1236:C 0
6 *1448:A *173:63 0.000206123
7 *1448:A *197:40 0
8 *1449:A *1251:B2 4.23017e-05
9 *1449:A *1372:RESET_B 0.000206116
10 *1449:A *173:63 0.000354434
11 *1449:A *197:40 0
12 *170:8 *1238:B 2.75229e-05
13 *170:8 *1445:A 1.47256e-05
14 *170:8 *192:12 0.00025276
15 *170:8 *197:23 0.000115762
16 *1251:A2 *1449:A 6.3409e-05
17 *1251:C1 *1449:A 1.34594e-05
18 *1253:B *1449:A 4.99619e-05
19 *1456:A *1449:A 0.00119603
*RES
1 *1460:X *170:8 11.64 
2 *170:8 *1448:A 6 
3 *170:8 *1449:A 24.495 
*END

*D_NET *171 0.0226431
*CONN
*I *1280:A0 I *D sky130_fd_sc_hd__mux2_1
*I *1285:A0 I *D sky130_fd_sc_hd__mux2_1
*I *1290:A0 I *D sky130_fd_sc_hd__mux2_1
*I *1340:A0 I *D sky130_fd_sc_hd__mux2_1
*I *1215:A0 I *D sky130_fd_sc_hd__mux2_1
*I *1335:A0 I *D sky130_fd_sc_hd__mux2_1
*I *1345:A0 I *D sky130_fd_sc_hd__mux2_1
*I *1330:A0 I *D sky130_fd_sc_hd__mux2_1
*I *1350:A0 I *D sky130_fd_sc_hd__mux2_1
*I *1325:A0 I *D sky130_fd_sc_hd__mux2_1
*I *1420:X O *D sky130_fd_sc_hd__buf_2
*CAP
1 *1280:A0 0.0001185
2 *1285:A0 0
3 *1290:A0 0.000786277
4 *1340:A0 0.000125393
5 *1215:A0 6.78968e-05
6 *1335:A0 6.05552e-05
7 *1345:A0 0.000566196
8 *1330:A0 0.000490424
9 *1350:A0 0.000161196
10 *1325:A0 7.84251e-05
11 *1420:X 0
12 *171:135 0.000960747
13 *171:125 0.00138902
14 *171:94 0.0014003
15 *171:81 0.000475606
16 *171:40 0.00131886
17 *171:38 0.000396286
18 *171:36 0.001797
19 *171:8 0.000320331
20 *171:4 0.00157537
21 *1215:A0 *1410:RESET_B 0.000123217
22 *1215:A0 *1422:A 8.34281e-06
23 *1280:A0 *1281:A0 0.000126679
24 *1280:A0 *1364:CLK 0
25 *1280:A0 *1366:CLK 2.49909e-05
26 *1290:A0 *1257:A1 8.65905e-05
27 *1290:A0 *1257:B2 7.59705e-05
28 *1290:A0 *1290:A1 0.000123225
29 *1290:A0 *249:10 0
30 *1325:A0 *1325:A1 0.000164679
31 *1330:A0 *1330:A1 0.000241833
32 *1330:A0 *1336:A0 4.20983e-05
33 *1330:A0 *226:8 5.07419e-05
34 *1335:A0 *1260:A1 8.49205e-05
35 *1340:A0 *1331:A0 0.000155928
36 *1340:A0 *1340:A1 3.00381e-05
37 *1345:A0 *1407:CLK 7.35813e-05
38 *1345:A0 *1407:RESET_B 8.07672e-05
39 *1350:A0 *1325:A1 3.09233e-05
40 *1350:A0 *1398:RESET_B 0
41 *1350:A0 *1418:RESET_B 0
42 *171:8 *1261:A1 0.000153217
43 *171:8 *1325:A1 0.0001249
44 *171:8 *1398:RESET_B 0.000113659
45 *171:36 *1260:A1 1.61831e-05
46 *171:36 *1261:A1 8.51862e-05
47 *171:36 *1263:A1 4.3364e-05
48 *171:36 *1322:A 0.000122797
49 *171:36 *1398:RESET_B 1.34503e-05
50 *171:36 *1420:A 0.000136853
51 *171:36 *179:16 0.000161529
52 *171:36 *214:18 1.90662e-05
53 *171:38 *225:12 3.23391e-05
54 *171:40 *1336:A0 0.000131
55 *171:40 *179:20 0
56 *171:40 *225:12 7.44375e-05
57 *171:81 *179:49 0
58 *171:94 *1410:RESET_B 0.000286492
59 *171:94 *1422:A 0.000726722
60 *171:94 *206:28 0.000125014
61 *171:125 *1270:A1 0.000158754
62 *171:125 *1274:A1 0.000175207
63 *171:125 *1281:A0 0.00162679
64 *171:125 *1282:A 0
65 *171:125 *1316:A1 0.000131874
66 *171:125 *1331:A0 0.000139245
67 *171:125 *1341:A1 8.00251e-05
68 *171:125 *1367:RESET_B 0.000176859
69 *171:125 *180:37 2.46089e-05
70 *171:125 *205:19 0
71 *171:125 *207:78 6.52181e-05
72 *1215:S *1215:A0 4.66742e-05
73 *1219:A2 *171:135 8.23457e-05
74 *1237:A2 *171:36 0.000128896
75 *1237:B1 *171:36 9.51192e-05
76 *1241:D1 *171:125 8.40269e-05
77 *1250:C1 *171:125 0
78 *1260:A2 *171:36 6.90876e-05
79 *1262:A2 *171:81 0.000322215
80 *1262:B1 *171:81 0
81 *1263:C1 *171:81 1.00941e-05
82 *1264:A *1290:A0 0.000236737
83 *1264:C *171:81 8.13313e-06
84 *1270:A2 *171:125 7.06865e-05
85 *1274:B1 *171:125 3.42142e-05
86 *1274:C1 *1340:A0 0
87 *1274:C1 *171:125 0
88 *1274:D1 *171:125 9.30717e-05
89 *1275:B2 *171:125 0.000588488
90 *1285:S *171:135 0.000186358
91 *1290:S *1290:A0 1.19928e-05
92 *1322:B *171:36 4.13077e-05
93 *1336:S *171:38 0
94 *1336:S *171:40 0
95 *1344:S *171:36 4.82919e-05
96 *1350:S *1350:A0 3.09164e-05
97 *1366:D *1290:A0 0.000163199
98 *1366:D *171:135 4.47209e-05
99 *1388:D *171:125 3.59997e-05
100 *1398:D *1325:A0 0
101 *1407:D *1330:A0 0
102 *1411:D *171:125 0.000142281
103 *103:35 *171:125 5.23362e-05
104 *106:60 *171:36 0.000395762
105 *110:59 *171:81 4.61701e-06
106 *111:34 *1340:A0 4.82863e-05
107 *155:44 *171:38 5.16348e-05
108 *155:44 *171:81 0.000243525
109 *156:16 *1340:A0 0
110 *157:6 *171:36 0.000576842
111 *169:33 *171:135 0.000137492
*RES
1 *1420:X *171:4 1.6 
2 *171:4 *171:8 4.865 
3 *171:8 *1325:A0 5.49 
4 *171:8 *1350:A0 6.285 
5 *171:4 *171:36 27.41 
6 *171:36 *171:38 1.38 
7 *171:38 *171:40 4.95 
8 *171:40 *1330:A0 12.63 
9 *171:40 *1345:A0 10.725 
10 *171:38 *1335:A0 4.395 
11 *171:36 *171:81 7.46 
12 *171:81 *1215:A0 3.355 
13 *171:81 *171:94 10.04 
14 *171:94 *1340:A0 6.3 
15 *171:94 *171:125 35.02 
16 *171:125 *171:135 6.725 
17 *171:135 *1290:A0 16.805 
18 *171:135 *1285:A0 1.6 
19 *171:125 *1280:A0 5.685 
*END

*D_NET *172 0.00914088
*CONN
*I *1300:A0 I *D sky130_fd_sc_hd__mux2_1
*I *1315:A0 I *D sky130_fd_sc_hd__mux2_1
*I *1320:A0 I *D sky130_fd_sc_hd__mux2_1
*I *1295:A0 I *D sky130_fd_sc_hd__mux2_1
*I *1310:A0 I *D sky130_fd_sc_hd__mux2_1
*I *1305:A0 I *D sky130_fd_sc_hd__mux2_1
*I *1421:X O *D sky130_fd_sc_hd__dlymetal6s2s_1
*CAP
1 *1300:A0 0
2 *1315:A0 0.000136184
3 *1320:A0 0.000176042
4 *1295:A0 0.000120378
5 *1310:A0 0
6 *1305:A0 0.000278516
7 *1421:X 0.000190532
8 *172:67 0.00100471
9 *172:52 0.00086918
10 *172:50 0.0012233
11 *172:35 0.00162791
12 *172:10 0.000929977
13 *1295:A0 *1258:A1 4.82919e-05
14 *1295:A0 *1295:A1 4.66108e-05
15 *1295:A0 *1316:A0 2.05056e-05
16 *1295:A0 *186:91 7.3664e-05
17 *1305:A0 *1289:A0 8.60799e-05
18 *1305:A0 *1305:A1 0.000164874
19 *1315:A0 *1315:A1 9.50342e-06
20 *1315:A0 *205:35 1.22762e-05
21 *172:10 *1256:A1 4.8854e-05
22 *172:10 *1305:A1 0
23 *172:35 *1302:A 0.000349696
24 *172:35 *1382:RESET_B 0.000115531
25 *172:50 *186:91 0.000129999
26 *172:52 *186:91 6.45317e-05
27 *172:67 *1259:A1 1.17309e-05
28 *172:67 *1259:B2 8.48585e-06
29 *172:67 *1300:A1 7.78746e-05
30 *172:67 *257:14 7.92464e-06
31 *1258:A2 *1295:A0 8.53113e-06
32 *1259:C1 *1295:A0 0
33 *1259:C1 *172:52 0
34 *1275:B2 *1320:A0 0
35 *1295:S *1295:A0 8.57024e-05
36 *1300:S *172:67 5.05521e-05
37 *1305:S *1305:A0 8.48308e-05
38 *1310:S *172:35 5.4155e-06
39 *1310:S *172:50 6.02119e-05
40 *1316:S *1315:A0 1.07797e-05
41 *1316:S *1320:A0 0
42 *1369:D *1305:A0 0.000139575
43 *1370:D *172:50 1.7386e-05
44 *1386:D *172:35 0.000170387
45 *1390:D *1315:A0 0.00019844
46 *1390:D *172:67 4.82863e-05
47 *1391:D *1320:A0 2.66935e-05
48 *88:12 *172:67 1.02931e-05
49 *88:27 *172:67 0.000168628
50 *92:27 *1295:A0 0
51 *92:36 *172:50 0
52 *92:36 *172:52 0
53 *150:14 *172:35 0.000201508
54 *150:14 *172:50 2.05056e-05
55 *169:12 *1315:A0 0
56 *169:12 *1320:A0 0
*RES
1 *1421:X *172:10 6.6675 
2 *172:10 *1305:A0 9.7425 
3 *172:10 *172:35 12.125 
4 *172:35 *1310:A0 1.6 
5 *172:35 *172:50 16.685 
6 *172:50 *172:52 1.38 
7 *172:52 *1295:A0 6.375 
8 *172:52 *172:67 10.73 
9 *172:67 *1320:A0 8.51 
10 *172:67 *1315:A0 8.12 
11 *172:50 *1300:A0 3.6 
*END

*D_NET *173 0.0172661
*CONN
*I *1214:A0 I *D sky130_fd_sc_hd__mux2_1
*I *1344:A0 I *D sky130_fd_sc_hd__mux2_1
*I *1334:A0 I *D sky130_fd_sc_hd__mux2_1
*I *1299:A0 I *D sky130_fd_sc_hd__mux2_1
*I *1309:A0 I *D sky130_fd_sc_hd__mux2_1
*I *1294:A0 I *D sky130_fd_sc_hd__mux2_1
*I *1289:A0 I *D sky130_fd_sc_hd__mux2_1
*I *1304:A0 I *D sky130_fd_sc_hd__mux2_1
*I *1324:A0 I *D sky130_fd_sc_hd__mux2_1
*I *1349:A0 I *D sky130_fd_sc_hd__mux2_1
*I *1422:X O *D sky130_fd_sc_hd__clkbuf_2
*CAP
1 *1214:A0 0.000101758
2 *1344:A0 0.000569407
3 *1334:A0 0
4 *1299:A0 0.000297278
5 *1309:A0 0
6 *1294:A0 0
7 *1289:A0 0.000321818
8 *1304:A0 3.38751e-05
9 *1324:A0 0
10 *1349:A0 0
11 *1422:X 0
12 *173:130 0.000671164
13 *173:101 0.000886506
14 *173:78 0.000656116
15 *173:63 0.0010269
16 *173:46 0.000845013
17 *173:33 0.000333248
18 *173:22 0.000869176
19 *173:12 0.0016327
20 *173:4 0.000923828
21 *1214:A0 *189:21 8.1919e-05
22 *1214:A0 *240:12 7.23602e-05
23 *1289:A0 *1245:A1 0
24 *1289:A0 *1289:A1 0
25 *1289:A0 *1372:RESET_B 3.09233e-05
26 *1289:A0 *182:63 0.000386045
27 *1289:A0 *191:53 0.000143266
28 *1299:A0 *1251:A1 6.97202e-05
29 *1299:A0 *1309:A1 1.33293e-05
30 *1299:A0 *176:28 0.000173266
31 *1299:A0 *182:47 0.000226855
32 *1299:A0 *191:68 5.44892e-05
33 *1299:A0 *191:90 0.000175214
34 *1299:A0 *264:8 7.23602e-05
35 *1304:A0 *1238:C 4.82863e-05
36 *1344:A0 *1260:B2 6.52265e-05
37 *1344:A0 *1344:A1 0.000270415
38 *1344:A0 *189:21 5.4256e-05
39 *1344:A0 *189:27 0.000157918
40 *1344:A0 *207:51 0
41 *173:12 *1353:CLK 9.66106e-05
42 *173:12 *1422:A 5.4155e-06
43 *173:12 *207:18 0.000134339
44 *173:12 *240:12 5.35969e-06
45 *173:22 *1326:A0 0.000233736
46 *173:22 *1419:CLK 7.4027e-05
47 *173:22 *207:18 0.000679921
48 *173:33 *1246:B2 2.04147e-05
49 *173:33 *1349:A1 8.98657e-05
50 *173:33 *1419:CLK 0.000100301
51 *173:33 *178:59 9.54469e-05
52 *173:46 *1246:B2 0.00025631
53 *173:46 *1324:A1 0.000164679
54 *173:46 *1380:CLK 0
55 *173:46 *1381:RESET_B 5.08304e-06
56 *173:46 *178:59 4.15613e-05
57 *173:63 *1236:C 0
58 *173:63 *1236:D 0.000113124
59 *173:63 *1238:B 0
60 *173:63 *1238:C 0.000161529
61 *173:63 *1372:CLK 0
62 *173:63 *1372:RESET_B 7.07801e-05
63 *173:63 *1373:RESET_B 4.82919e-05
64 *173:63 *1381:RESET_B 0
65 *173:63 *191:12 0
66 *173:63 *252:6 2.49909e-05
67 *173:63 *260:10 7.18883e-05
68 *173:78 *252:6 9.38846e-05
69 *173:101 *1245:A1 0.000174525
70 *173:101 *1245:B2 4.53904e-05
71 *173:101 *1293:A0 0.000122102
72 *173:101 *1421:A 3.83702e-06
73 *173:101 *252:6 2.68464e-05
74 *1215:S *1214:A0 1.26548e-05
75 *1240:A2 *173:22 0.000230194
76 *1245:A2 *173:101 6.90438e-05
77 *1305:A0 *1289:A0 8.60799e-05
78 *1305:S *1289:A0 4.57056e-05
79 *1309:S *1299:A0 8.53554e-05
80 *1334:S *173:12 7.48863e-05
81 *1334:S *173:22 5.83121e-06
82 *1349:S *173:22 2.25161e-05
83 *1349:S *173:33 4.31921e-05
84 *1354:D *1344:A0 2.25075e-05
85 *1369:D *1289:A0 4.82919e-05
86 *1372:D *173:63 0
87 *1373:D *173:63 0.000122337
88 *1377:D *1299:A0 9.02174e-05
89 *1385:D *173:101 0.000312958
90 *1419:D *173:22 0.00034185
91 *1448:A *173:63 0.000206123
92 *1449:A *173:63 0.000354434
93 *93:29 *173:101 0.000219448
94 *106:47 *1214:A0 0
95 *106:47 *1344:A0 0.000420624
96 *106:60 *1344:A0 3.261e-05
97 *109:14 *173:46 5.02217e-05
98 *109:41 *173:22 9.69304e-05
99 *147:40 *1299:A0 2.86265e-06
100 *147:40 *173:101 4.43682e-05
*RES
1 *1422:X *173:4 1.6 
2 *173:4 *173:12 11.445 
3 *173:12 *173:22 17.84 
4 *173:22 *1349:A0 3.6 
5 *173:22 *173:33 4.635 
6 *173:33 *1324:A0 3.6 
7 *173:33 *173:46 6.98 
8 *173:46 *1304:A0 2.05 
9 *173:46 *173:63 17.695 
10 *173:63 *1289:A0 13.145 
11 *173:63 *173:78 1.485 
12 *173:78 *1294:A0 1.6 
13 *173:78 *173:101 14.815 
14 *173:101 *1309:A0 1.6 
15 *173:101 *1299:A0 13.64 
16 *173:12 *1334:A0 1.6 
17 *173:4 *173:130 2 
18 *173:130 *1344:A0 14.325 
19 *173:130 *1214:A0 6.045 
*END

*D_NET *174 0.0078816
*CONN
*I *1284:A0 I *D sky130_fd_sc_hd__mux2_1
*I *1279:A0 I *D sky130_fd_sc_hd__mux2_1
*I *1314:A0 I *D sky130_fd_sc_hd__mux2_1
*I *1319:A0 I *D sky130_fd_sc_hd__mux2_1
*I *1339:A0 I *D sky130_fd_sc_hd__mux2_1
*I *1329:A0 I *D sky130_fd_sc_hd__mux2_1
*I *1423:X O *D sky130_fd_sc_hd__buf_1
*CAP
1 *1284:A0 0
2 *1279:A0 9.67732e-05
3 *1314:A0 0.000231066
4 *1319:A0 0.000302501
5 *1339:A0 0
6 *1329:A0 0.000728141
7 *1423:X 0
8 *174:61 0.000545208
9 *174:50 0.000819575
10 *174:44 0.000512065
11 *174:12 0.000916488
12 *174:6 0.000400706
13 *1279:A0 *1254:A1 0.000229897
14 *1279:A0 *184:48 0.000153816
15 *1279:A0 *204:164 0.00022304
16 *1314:A0 *1357:CLK 9.2741e-05
17 *1329:A0 *1338:A0 0.000180682
18 *1329:A0 *1408:RESET_B 0.000123978
19 *1329:A0 *1425:A 0
20 *1329:A0 *175:42 0.00012904
21 *1329:A0 *179:97 8.20606e-05
22 *1329:A0 *186:38 0
23 *174:12 *1423:A 7.96996e-05
24 *174:12 *175:42 0.000195532
25 *174:44 *1278:A0 0.000136313
26 *174:44 *1423:A 2.45182e-05
27 *174:44 *175:42 6.18832e-05
28 *174:44 *186:49 0
29 *174:50 *1425:A 0.000268733
30 *174:50 *206:140 0
31 *174:61 *1254:A1 0.000158297
32 *174:61 *1425:A 0.000169534
33 *174:61 *204:164 0.000179015
34 *174:61 *206:140 0
35 *1279:S *1279:A0 0.000153816
36 *1284:S *174:44 2.75145e-05
37 *1284:S *174:50 4.21973e-05
38 *1286:S *174:50 0.000158072
39 *1337:B *1329:A0 1.88904e-05
40 *1365:D *1319:A0 7.35729e-05
41 *1393:D *1319:A0 4.82863e-05
42 *1452:A *1329:A0 2.49909e-05
43 *1452:A *174:12 0.00021036
44 *104:44 *1329:A0 9.5799e-06
45 *152:25 *1319:A0 6.71882e-05
46 *166:10 *1314:A0 5.83121e-06
*RES
1 *1423:X *174:6 3.6 
2 *174:6 *174:12 6.98 
3 *174:12 *1329:A0 13.527 
4 *174:12 *1339:A0 1.6 
5 *174:6 *174:44 6.635 
6 *174:44 *174:50 7.34 
7 *174:50 *1319:A0 8.19 
8 *174:50 *174:61 5.46 
9 *174:61 *1314:A0 6.81 
10 *174:61 *1279:A0 7.74 
11 *174:44 *1284:A0 1.6 
*END

*D_NET *175 0.0287679
*CONN
*I *1278:A0 I *D sky130_fd_sc_hd__mux2_1
*I *1318:A0 I *D sky130_fd_sc_hd__mux2_1
*I *1213:A0 I *D sky130_fd_sc_hd__mux2_1
*I *1303:A0 I *D sky130_fd_sc_hd__mux2_1
*I *1348:A0 I *D sky130_fd_sc_hd__mux2_1
*I *1333:A0 I *D sky130_fd_sc_hd__mux2_1
*I *1323:A0 I *D sky130_fd_sc_hd__mux2_1
*I *1343:A0 I *D sky130_fd_sc_hd__mux2_1
*I *1338:A0 I *D sky130_fd_sc_hd__mux2_1
*I *1328:A0 I *D sky130_fd_sc_hd__mux2_1
*I *1424:X O *D sky130_fd_sc_hd__buf_2
*CAP
1 *1278:A0 0.00122569
2 *1318:A0 6.52939e-05
3 *1213:A0 0.000102418
4 *1303:A0 0.00107443
5 *1348:A0 0.000419842
6 *1333:A0 6.88584e-05
7 *1323:A0 0.000323001
8 *1343:A0 0.00022717
9 *1338:A0 0.000184134
10 *1328:A0 0.000252073
11 *1424:X 0
12 *175:78 0.000580282
13 *175:76 0.000334101
14 *175:70 0.000923865
15 *175:68 0.00179973
16 *175:64 0.00243865
17 *175:50 0.00243479
18 *175:42 0.0019439
19 *175:29 0.000869738
20 *175:4 0.000709138
21 *1213:A0 *1212:A 0
22 *1213:A0 *178:20 0
23 *1278:A0 *1243:B1_N 0.000101809
24 *1278:A0 *1249:B2 0.000133068
25 *1278:A0 *1278:A1 4.82863e-05
26 *1278:A0 *1356:CLK 0
27 *1278:A0 *1356:RESET_B 0
28 *1278:A0 *1361:RESET_B 0
29 *1278:A0 *1365:RESET_B 7.52538e-05
30 *1278:A0 *1393:RESET_B 0
31 *1278:A0 *1425:A 0.000293733
32 *1278:A0 *184:20 0
33 *1278:A0 *184:48 0.000203755
34 *1278:A0 *184:109 4.44927e-05
35 *1278:A0 *185:25 0.000131011
36 *1278:A0 *186:49 0
37 *1278:A0 *194:45 0
38 *1303:A0 *1272:B2 7.49279e-05
39 *1303:A0 *1303:A1 0.000122152
40 *1303:A0 *1352:CLK 0.000250609
41 *1303:A0 *1421:A 0
42 *1303:A0 *1445:A 0.00016031
43 *1303:A0 *1447:A 4.61701e-06
44 *1303:A0 *200:50 0.000344076
45 *1318:A0 *180:25 8.23457e-05
46 *1323:A0 *1323:A1 4.78613e-05
47 *1323:A0 *1333:A1 3.66286e-05
48 *1323:A0 *1396:RESET_B 9.31967e-05
49 *1323:A0 *1404:CLK 2.80419e-05
50 *1323:A0 *187:42 1.15487e-05
51 *1323:A0 *187:44 2.81176e-05
52 *1323:A0 *214:18 8.40388e-05
53 *1323:A0 *223:12 0.0001249
54 *1323:A0 *275:8 0.000201503
55 *1328:A0 *1234:B2 0.00024514
56 *1328:A0 *1328:A1 0.00016163
57 *1328:A0 *1402:CLK 0
58 *1328:A0 *179:8 2.49909e-05
59 *1328:A0 *189:88 0
60 *1333:A0 *1333:A1 1.19928e-05
61 *1333:A0 *1396:RESET_B 4.66108e-05
62 *1338:A0 *1423:A 0
63 *1338:A0 *186:38 0
64 *1338:A0 *220:8 3.00381e-05
65 *1343:A0 *1404:RESET_B 0.000140568
66 *1343:A0 *177:36 3.76596e-05
67 *1343:A0 *177:62 7.60486e-05
68 *1343:A0 *223:12 0
69 *1348:A0 *1322:A 3.07322e-05
70 *1348:A0 *206:44 0.000183523
71 *175:29 *1234:A1 0.000100198
72 *175:29 *1234:B2 0
73 *175:29 *1422:A 0.000151583
74 *175:29 *1425:A 0.000247663
75 *175:29 *179:8 0.000132968
76 *175:29 *206:115 2.12099e-05
77 *175:42 *1249:B2 0.000181376
78 *175:42 *1339:A1 0.000229897
79 *175:42 *1423:A 0
80 *175:42 *1425:A 0
81 *175:50 *1392:RESET_B 6.71882e-05
82 *175:50 *190:49 6.71882e-05
83 *175:50 *271:8 3.19205e-05
84 *175:64 *1252:A1 8.89993e-05
85 *175:64 *206:28 0.000959328
86 *175:64 *207:78 0.000250132
87 *175:68 *1352:CLK 2.49909e-05
88 *175:68 *178:20 1.29825e-05
89 *175:68 *224:8 0.000113247
90 *175:70 *1334:A1 0
91 *175:70 *1352:CLK 5.23362e-05
92 *175:76 *1240:B2 0.000304948
93 *175:76 *177:76 0.0002459
94 *175:78 *1240:B2 7.47284e-05
95 *175:78 *177:62 7.30547e-05
96 *175:78 *177:76 2.07184e-05
97 *1244:B2 *1278:A0 4.91927e-05
98 *1249:B1 *175:64 7.14699e-05
99 *1250:C1 *175:64 0.000133733
100 *1252:A2 *175:50 0.000179015
101 *1252:A2 *175:64 0.000202371
102 *1261:A2 *1348:A0 8.39329e-05
103 *1273:C1 *1303:A0 4.07937e-05
104 *1278:S *1278:A0 2.30292e-05
105 *1282:B *1278:A0 0.00012297
106 *1283:S *1278:A0 0.000243758
107 *1318:S *175:50 0.000172151
108 *1318:S *175:64 7.30547e-05
109 *1323:S *1323:A0 8.51862e-05
110 *1329:A0 *1338:A0 0.000180682
111 *1329:A0 *175:42 0.00012904
112 *1330:S *1328:A0 1.34361e-05
113 *1333:S *175:76 9.87538e-05
114 *1334:S *175:70 4.40899e-05
115 *1334:S *175:76 3.59794e-05
116 *1338:S *1338:A0 0.000238137
117 *1338:S *175:29 0.00015969
118 *1339:S *175:64 0.000447373
119 *1348:S *1348:A0 8.49205e-05
120 *1351:S *1348:A0 1.42807e-05
121 *1353:D *175:64 1.73858e-05
122 *1353:D *175:68 9.60582e-07
123 *1364:D *1278:A0 9.54469e-05
124 *1400:D *1328:A0 0
125 *1404:D *1323:A0 0.000423637
126 *1405:D *175:70 0
127 *1408:D *175:29 0.000116158
128 *1416:D *1348:A0 2.56752e-06
129 *103:41 *175:64 0.00015806
130 *107:18 *1303:A0 2.62017e-05
131 *107:26 *1303:A0 0
132 *107:26 *1348:A0 0
133 *109:25 *1303:A0 0.000119931
134 *110:10 *175:70 0
135 *145:20 *1278:A0 0.00117711
136 *145:42 *1278:A0 6.21553e-05
137 *153:42 *1348:A0 1.85103e-05
138 *158:30 *1348:A0 8.41307e-05
139 *174:12 *175:42 0.000195532
140 *174:44 *1278:A0 0.000136313
141 *174:44 *175:42 6.18832e-05
*RES
1 *1424:X *175:4 1.6 
2 *175:4 *1328:A0 11 
3 *175:4 *175:29 16.155 
4 *175:29 *1338:A0 7.92 
5 *175:29 *175:42 6.99 
6 *175:42 *175:50 11.08 
7 *175:50 *175:64 30.02 
8 *175:64 *175:68 7.28 
9 *175:68 *175:70 4.44 
10 *175:70 *175:76 6.525 
11 *175:76 *175:78 1.125 
12 *175:78 *1343:A0 8.07 
13 *175:78 *1323:A0 16.6 
14 *175:76 *1333:A0 4.395 
15 *175:70 *1348:A0 14.8 
16 *175:68 *1303:A0 26.005 
17 *175:64 *1213:A0 7.235 
18 *175:50 *1318:A0 4.395 
19 *175:42 *1278:A0 37.84 
*END

*D_NET *176 0.0139659
*CONN
*I *1283:A0 I *D sky130_fd_sc_hd__mux2_1
*I *1313:A0 I *D sky130_fd_sc_hd__mux2_1
*I *1298:A0 I *D sky130_fd_sc_hd__mux2_1
*I *1288:A0 I *D sky130_fd_sc_hd__mux2_1
*I *1308:A0 I *D sky130_fd_sc_hd__mux2_1
*I *1293:A0 I *D sky130_fd_sc_hd__mux2_1
*I *1425:X O *D sky130_fd_sc_hd__dlymetal6s2s_1
*CAP
1 *1283:A0 8.73105e-05
2 *1313:A0 0
3 *1298:A0 0.000221378
4 *1288:A0 0
5 *1308:A0 0
6 *1293:A0 0.000607508
7 *1425:X 9.42174e-05
8 *176:62 0.000398248
9 *176:28 0.00128602
10 *176:20 0.00232368
11 *176:12 0.00168308
12 *176:6 0.000396305
13 *1283:A0 *1356:RESET_B 0.000298449
14 *1293:A0 *1230:B2 0.000384392
15 *1293:A0 *1245:A1 5.83121e-06
16 *1293:A0 *1421:A 7.24982e-05
17 *1293:A0 *182:47 0.000122331
18 *1298:A0 *1223:A1 0
19 *1298:A0 *1368:RESET_B 0.000265171
20 *1298:A0 *204:80 2.96553e-05
21 *1298:A0 *247:12 0
22 *176:6 *1425:A 3.66286e-05
23 *176:12 *1282:A 0.000267123
24 *176:12 *1313:A1 4.82919e-05
25 *176:12 *1425:A 8.40269e-05
26 *176:20 *1282:A 0.000175805
27 *176:20 *1313:A1 0.000120655
28 *176:20 *194:19 0.000840243
29 *176:20 *194:32 0.000185826
30 *176:28 *1251:A1 1.33293e-05
31 *176:28 *182:47 9.80032e-06
32 *176:28 *182:106 8.53113e-06
33 *176:28 *186:91 0.000273702
34 *176:28 *196:90 4.9968e-05
35 *176:28 *208:54 6.53481e-05
36 *176:62 *1368:RESET_B 0.000445159
37 *176:62 *182:106 0.000153787
38 *176:62 *186:91 0.000444179
39 *176:62 *204:80 4.7043e-05
40 *1245:A2 *1293:A0 0.000121817
41 *1283:S *1283:A0 0.000105849
42 *1298:S *1298:A0 1.83847e-05
43 *1299:A0 *176:28 0.000173266
44 *1299:S *176:28 0.000315527
45 *1300:S *176:28 0.000223011
46 *1308:S *176:28 4.66108e-05
47 *1378:D *176:28 9.71067e-05
48 *1384:D *176:28 0
49 *1456:A *1293:A0 0.00015421
50 *93:29 *1293:A0 0.000226373
51 *145:8 *176:12 4.92062e-05
52 *145:20 *1283:A0 3.76625e-05
53 *145:42 *1283:A0 3.67779e-05
54 *147:12 *1293:A0 0.000421171
55 *147:40 *1293:A0 0.000163204
56 *148:32 *1298:A0 0
57 *149:24 *1293:A0 0.000108124
58 *173:101 *1293:A0 0.000122102
*RES
1 *1425:X *176:6 3.085 
2 *176:6 *176:12 5.055 
3 *176:12 *176:20 22.4 
4 *176:20 *176:28 15.545 
5 *176:28 *1293:A0 25.68 
6 *176:28 *1308:A0 1.6 
7 *176:20 *176:62 6.99 
8 *176:62 *1288:A0 3.6 
9 *176:62 *1298:A0 8.235 
10 *176:12 *1313:A0 1.6 
11 *176:6 *1283:A0 9.02 
*END

*D_NET *177 0.0123919
*CONN
*I *1353:RESET_B I *D sky130_fd_sc_hd__dfrtp_1
*I *1413:RESET_B I *D sky130_fd_sc_hd__dfrtp_1
*I *1416:RESET_B I *D sky130_fd_sc_hd__dfrtp_1
*I *1418:RESET_B I *D sky130_fd_sc_hd__dfrtp_1
*I *1398:RESET_B I *D sky130_fd_sc_hd__dfrtp_1
*I *1396:RESET_B I *D sky130_fd_sc_hd__dfrtp_1
*I *1412:RESET_B I *D sky130_fd_sc_hd__dfrtp_1
*I *1404:RESET_B I *D sky130_fd_sc_hd__dfrtp_1
*I *1415:RESET_B I *D sky130_fd_sc_hd__dfrtp_1
*I *1414:RESET_B I *D sky130_fd_sc_hd__dfrtp_1
*I *1426:X O *D sky130_fd_sc_hd__clkbuf_4
*CAP
1 *1353:RESET_B 0.000136018
2 *1413:RESET_B 0
3 *1416:RESET_B 7.59519e-05
4 *1418:RESET_B 0.000313323
5 *1398:RESET_B 0.000265631
6 *1396:RESET_B 0.000315532
7 *1412:RESET_B 2.48235e-05
8 *1404:RESET_B 0.000207139
9 *1415:RESET_B 4.68484e-05
10 *1414:RESET_B 0.000319312
11 *1426:X 6.05936e-05
12 *177:116 0.000346011
13 *177:80 0.0012515
14 *177:76 0.00105768
15 *177:62 0.000739258
16 *177:36 0.000252971
17 *177:34 0.000699655
18 *177:24 0.000793014
19 *177:12 0.000324483
20 *1353:RESET_B *1269:B2 0.000136227
21 *1396:RESET_B *1333:A1 4.41506e-05
22 *1396:RESET_B *187:42 7.9576e-05
23 *1396:RESET_B *223:12 7.10578e-05
24 *1396:RESET_B *275:8 0.000119631
25 *1398:RESET_B *1261:A1 7.06865e-05
26 *1398:RESET_B *1325:A1 0
27 *1398:RESET_B *1421:A 0
28 *1404:RESET_B *1343:A1 9.54399e-05
29 *1412:RESET_B *187:70 2.40101e-05
30 *1414:RESET_B *1402:RESET_B 0.000110928
31 *1414:RESET_B *233:8 5.78185e-05
32 *1415:RESET_B *1414:CLK 3.03775e-05
33 *1415:RESET_B *234:10 8.23457e-05
34 *1418:RESET_B *1261:A1 0.000187766
35 *1418:RESET_B *1261:B2 0.000228937
36 *1418:RESET_B *1350:A1 8.49205e-05
37 *177:12 *1402:RESET_B 3.21052e-05
38 *177:12 *1414:CLK 6.05513e-05
39 *177:12 *233:8 0.000383774
40 *177:12 *234:10 8.40269e-05
41 *177:24 *1345:A1 4.9968e-05
42 *177:34 *1237:A1 4.66108e-05
43 *177:34 *1414:CLK 5.95052e-05
44 *177:34 *187:70 0.000122331
45 *177:34 *187:74 8.88108e-06
46 *177:34 *231:6 3.74161e-05
47 *177:34 *234:10 0.000118081
48 *177:36 *1343:A1 7.30547e-05
49 *177:62 *1343:A1 2.92496e-05
50 *177:62 *187:78 0
51 *177:76 *1240:A1 1.79348e-05
52 *177:76 *1240:B2 3.78034e-06
53 *177:80 *1416:CLK 0.000193615
54 *177:116 *1260:B2 0.000278799
55 *177:116 *1269:B2 7.8831e-05
56 *177:116 *1345:A1 8.53113e-06
57 *1240:B1 *177:76 5.83121e-06
58 *1261:A2 *1418:RESET_B 5.4155e-06
59 *1261:B1 *1418:RESET_B 7.00889e-06
60 *1323:A0 *1396:RESET_B 9.31967e-05
61 *1333:A0 *1396:RESET_B 4.66108e-05
62 *1333:S *177:62 7.47215e-05
63 *1333:S *177:76 0.000266618
64 *1343:A0 *1404:RESET_B 0.000140568
65 *1343:A0 *177:36 3.76596e-05
66 *1343:A0 *177:62 7.60486e-05
67 *1350:A0 *1398:RESET_B 0
68 *1350:A0 *1418:RESET_B 0
69 *1350:S *1418:RESET_B 0
70 *1412:D *1404:RESET_B 0.000194786
71 *1414:D *177:12 2.75229e-05
72 *1454:A *1353:RESET_B 0.000197207
73 *1454:A *177:116 0.000117657
74 *153:12 *1398:RESET_B 0
75 *157:10 *177:116 8.96831e-05
76 *158:8 *1418:RESET_B 2.26018e-05
77 *160:14 *177:24 4.9968e-05
78 *160:14 *177:116 0.000131401
79 *171:8 *1398:RESET_B 0.000113659
80 *171:36 *1398:RESET_B 1.34503e-05
81 *175:76 *177:76 0.0002459
82 *175:78 *177:62 7.30547e-05
83 *175:78 *177:76 2.07184e-05
*RES
1 *1426:X *1414:RESET_B 3.3775 
2 *1414:RESET_B *177:12 6.9675 
3 *177:12 *1415:RESET_B 1.1025 
4 *177:12 *177:24 2.615 
5 *177:24 *177:34 11.47 
6 *177:34 *177:36 0.87 
7 *177:36 *1404:RESET_B 6.6425 
8 *177:36 *1412:RESET_B 2.3975 
9 *177:34 *177:62 2.7 
10 *177:62 *1396:RESET_B 7.9175 
11 *177:62 *177:76 7.685 
12 *177:76 *177:80 9.695 
13 *177:80 *1398:RESET_B 6.7025 
14 *177:80 *1418:RESET_B 8.3525 
15 *177:76 *1416:RESET_B 1.8225 
16 *177:24 *177:116 5.97 
17 *177:116 *1413:RESET_B 2 
18 *177:116 *1353:RESET_B 6.185 
*END

*D_NET *178 0.0088327
*CONN
*I *1405:RESET_B I *D sky130_fd_sc_hd__dfrtp_1
*I *1399:RESET_B I *D sky130_fd_sc_hd__dfrtp_1
*I *1380:RESET_B I *D sky130_fd_sc_hd__dfrtp_1
*I *1381:RESET_B I *D sky130_fd_sc_hd__dfrtp_1
*I *1397:RESET_B I *D sky130_fd_sc_hd__dfrtp_1
*I *1417:RESET_B I *D sky130_fd_sc_hd__dfrtp_1
*I *1419:RESET_B I *D sky130_fd_sc_hd__dfrtp_1
*I *1352:RESET_B I *D sky130_fd_sc_hd__dfrtp_1
*I *1427:X O *D sky130_fd_sc_hd__buf_2
*CAP
1 *1405:RESET_B 2.44301e-05
2 *1399:RESET_B 0.000130497
3 *1380:RESET_B 0.00040143
4 *1381:RESET_B 0.000647932
5 *1397:RESET_B 3.58247e-05
6 *1417:RESET_B 2.75536e-05
7 *1419:RESET_B 9.27633e-05
8 *1352:RESET_B 0.00104771
9 *1427:X 0.000430226
10 *178:59 0.000446543
11 *178:49 0.000455544
12 *178:47 0.000563292
13 *178:28 0.000727589
14 *178:20 0.00110772
15 *1352:RESET_B *239:8 0.000128934
16 *1380:RESET_B *1380:CLK 4.66108e-05
17 *1380:RESET_B *209:25 0.000305459
18 *1380:RESET_B *209:33 0.000188498
19 *1381:RESET_B *1238:B 9.21595e-05
20 *1381:RESET_B *1238:D 0
21 *1381:RESET_B *1435:A 0
22 *1381:RESET_B *209:25 4.2463e-05
23 *1381:RESET_B *260:10 0
24 *1397:RESET_B *1435:A 0
25 *1405:RESET_B *1352:CLK 2.65337e-05
26 *1417:RESET_B *188:24 1.32907e-06
27 *1417:RESET_B *188:39 1.30699e-05
28 *178:20 *1212:A 0
29 *178:20 *1213:A1 3.18219e-05
30 *178:20 *1352:CLK 4.68308e-05
31 *178:20 *206:34 0
32 *178:20 *224:8 7.61941e-05
33 *178:28 *1326:A0 0.000157379
34 *178:28 *1352:CLK 0.000104175
35 *178:28 *188:47 0.000549662
36 *178:47 *1380:CLK 3.05295e-05
37 *178:47 *188:47 0.00012526
38 *178:47 *188:67 3.46298e-05
39 *178:49 *188:39 0.000134454
40 *178:49 *236:8 8.65905e-05
41 *178:59 *1324:A1 9.428e-05
42 *178:59 *1435:A 0
43 *1213:A0 *178:20 0
44 *1273:C1 *1352:RESET_B 3.34235e-05
45 *1349:S *1419:RESET_B 0
46 *1349:S *178:47 0
47 *1399:D *1399:RESET_B 9.28507e-05
48 *109:14 *1381:RESET_B 9.5433e-05
49 *110:10 *178:20 0
50 *173:33 *178:59 9.54469e-05
51 *173:46 *1381:RESET_B 5.08304e-06
52 *173:46 *178:59 4.15613e-05
53 *173:63 *1381:RESET_B 0
54 *175:68 *178:20 1.29825e-05
*RES
1 *1427:X *1352:RESET_B 7.2925 
2 *1352:RESET_B *178:20 12.685 
3 *178:20 *178:28 10.16 
4 *178:28 *1419:RESET_B 3.38 
5 *178:28 *178:47 6.02 
6 *178:47 *178:49 4.59 
7 *178:49 *1417:RESET_B 0.3975 
8 *178:49 *178:59 6.0575 
9 *178:59 *1397:RESET_B 2.6825 
10 *178:59 *1381:RESET_B 6.455 
11 *1381:RESET_B *1380:RESET_B 7.95 
12 *178:47 *1399:RESET_B 2.1225 
13 *178:20 *1405:RESET_B 0.7575 
*END

*D_NET *179 0.0110409
*CONN
*I *1408:RESET_B I *D sky130_fd_sc_hd__dfrtp_1
*I *1401:RESET_B I *D sky130_fd_sc_hd__dfrtp_1
*I *1400:RESET_B I *D sky130_fd_sc_hd__dfrtp_1
*I *1403:RESET_B I *D sky130_fd_sc_hd__dfrtp_1
*I *1355:RESET_B I *D sky130_fd_sc_hd__dfrtp_1
*I *1410:RESET_B I *D sky130_fd_sc_hd__dfrtp_1
*I *1354:RESET_B I *D sky130_fd_sc_hd__dfrtp_1
*I *1406:RESET_B I *D sky130_fd_sc_hd__dfrtp_1
*I *1402:RESET_B I *D sky130_fd_sc_hd__dfrtp_1
*I *1407:RESET_B I *D sky130_fd_sc_hd__dfrtp_1
*I *1428:X O *D sky130_fd_sc_hd__clkbuf_4
*CAP
1 *1408:RESET_B 8.2794e-05
2 *1401:RESET_B 0
3 *1400:RESET_B 0.000243868
4 *1403:RESET_B 1.77753e-05
5 *1355:RESET_B 0.000140835
6 *1410:RESET_B 0.000376934
7 *1354:RESET_B 0
8 *1406:RESET_B 0
9 *1402:RESET_B 0.00051769
10 *1407:RESET_B 0.000107594
11 *1428:X 0
12 *179:97 0.000216946
13 *179:85 0.000464941
14 *179:56 0.000601975
15 *179:49 0.000239907
16 *179:20 0.000790247
17 *179:18 0.000235323
18 *179:16 0.000755797
19 *179:8 0.00106757
20 *179:4 0.000606976
21 *1355:RESET_B *207:51 0.000304247
22 *1400:RESET_B *1424:A 2.86623e-05
23 *1400:RESET_B *1425:A 1.52184e-05
24 *1400:RESET_B *1426:A 0
25 *1400:RESET_B *186:38 0
26 *1400:RESET_B *219:8 7.25921e-05
27 *1402:RESET_B *1426:A 0.000203037
28 *1407:RESET_B *1407:CLK 0
29 *1408:RESET_B *1425:A 0.000118446
30 *1410:RESET_B *206:28 0.000273958
31 *179:8 *1424:A 0.000203178
32 *179:8 *222:8 6.47326e-05
33 *179:16 *1260:A1 1.56315e-05
34 *179:16 *1263:A1 8.49205e-05
35 *179:16 *1335:A1 4.82919e-05
36 *179:16 *189:69 0.000169112
37 *179:16 *222:8 4.65698e-05
38 *179:18 *207:51 0.000170484
39 *179:18 *225:12 8.44359e-05
40 *179:20 *1407:CLK 0
41 *179:20 *207:51 0.000100162
42 *179:20 *225:12 3.24046e-05
43 *179:49 *1262:A1 3.79424e-05
44 *179:49 *207:51 0.000272645
45 *179:56 *1215:A1 7.00066e-05
46 *179:56 *1262:A1 5.26006e-05
47 *179:56 *207:51 0.0002627
48 *179:85 *1424:A 9.80032e-06
49 *179:85 *212:8 8.49205e-05
50 *179:97 *1425:A 0.000153242
51 *179:97 *186:38 0
52 *1215:A0 *1410:RESET_B 0.000123217
53 *1215:S *1410:RESET_B 1.34594e-05
54 *1260:A2 *179:16 0.000123444
55 *1262:A2 *1355:RESET_B 4.49498e-05
56 *1262:A2 *179:56 1.82476e-05
57 *1262:B1 *1355:RESET_B 0
58 *1263:C1 *179:49 1.00941e-05
59 *1264:C *179:49 8.37351e-05
60 *1328:A0 *179:8 2.49909e-05
61 *1329:A0 *1408:RESET_B 0.000123978
62 *1329:A0 *179:97 8.20606e-05
63 *1336:S *179:16 0.000123225
64 *1345:A0 *1407:RESET_B 8.07672e-05
65 *1414:RESET_B *1402:RESET_B 0.000110928
66 *103:8 *1355:RESET_B 0
67 *110:59 *179:49 1.7635e-05
68 *154:19 *1400:RESET_B 0
69 *171:36 *179:16 0.000161529
70 *171:40 *179:20 0
71 *171:81 *179:49 0
72 *171:94 *1410:RESET_B 0.000286492
73 *175:29 *179:8 0.000132968
74 *177:12 *1402:RESET_B 3.21052e-05
*RES
1 *1428:X *179:4 1.6 
2 *179:4 *179:8 9.69 
3 *179:8 *179:16 12.575 
4 *179:16 *179:18 2.145 
5 *179:18 *179:20 3.165 
6 *179:20 *1407:RESET_B 3.8675 
7 *179:20 *1402:RESET_B 9.4175 
8 *179:18 *1406:RESET_B 2 
9 *179:16 *179:49 3.42 
10 *179:49 *1354:RESET_B 2 
11 *179:49 *179:56 3.165 
12 *179:56 *1410:RESET_B 9.0725 
13 *179:56 *1355:RESET_B 5.675 
14 *179:8 *1403:RESET_B 0.3075 
15 *179:4 *179:85 3.14 
16 *179:85 *1400:RESET_B 5.8325 
17 *179:85 *179:97 3.42 
18 *179:97 *1401:RESET_B 2 
19 *179:97 *1408:RESET_B 4.655 
*END

*D_NET *180 0.00712952
*CONN
*I *1365:RESET_B I *D sky130_fd_sc_hd__dfrtp_1
*I *1367:RESET_B I *D sky130_fd_sc_hd__dfrtp_1
*I *1395:RESET_B I *D sky130_fd_sc_hd__dfrtp_1
*I *1411:RESET_B I *D sky130_fd_sc_hd__dfrtp_1
*I *1409:RESET_B I *D sky130_fd_sc_hd__dfrtp_1
*I *1392:RESET_B I *D sky130_fd_sc_hd__dfrtp_1
*I *1429:X O *D sky130_fd_sc_hd__clkbuf_2
*CAP
1 *1365:RESET_B 0.000223815
2 *1367:RESET_B 0.000357043
3 *1395:RESET_B 0.000291969
4 *1411:RESET_B 3.11602e-05
5 *1409:RESET_B 0.000907947
6 *1392:RESET_B 0.000194429
7 *1429:X 0.000194429
8 *180:37 0.000704487
9 *180:25 0.000947463
10 *180:12 0.000270933
11 *1365:RESET_B *1249:B2 0.000173508
12 *1365:RESET_B *1425:A 0.000294877
13 *1367:RESET_B *1281:A0 0.000243744
14 *1367:RESET_B *207:78 0
15 *1392:RESET_B *1423:A 4.82863e-05
16 *1392:RESET_B *1429:A 5.83121e-06
17 *1392:RESET_B *271:8 5.85626e-05
18 *1395:RESET_B *190:33 7.26176e-06
19 *1395:RESET_B *207:64 6.81599e-05
20 *1409:RESET_B *1249:B2 5.92191e-05
21 *1409:RESET_B *1339:A1 1.71013e-05
22 *1409:RESET_B *1425:A 0.000139245
23 *1249:A2 *1367:RESET_B 1.74678e-05
24 *1274:B1 *1367:RESET_B 0.000421319
25 *1274:C1 *1395:RESET_B 0.000161529
26 *1274:C1 *180:37 0
27 *1274:D1 *1367:RESET_B 8.23457e-05
28 *1275:B2 *1367:RESET_B 7.06865e-05
29 *1278:A0 *1365:RESET_B 7.52538e-05
30 *1318:A0 *180:25 8.23457e-05
31 *1318:S *180:25 6.71882e-05
32 *1365:D *1365:RESET_B 0.00011852
33 *1395:D *1367:RESET_B 0
34 *1409:D *180:25 8.88715e-05
35 *1411:D *1411:RESET_B 5.83121e-06
36 *103:35 *1411:RESET_B 9.71251e-06
37 *103:35 *180:25 0.000184733
38 *145:20 *1365:RESET_B 0.000235585
39 *171:125 *1367:RESET_B 0.000176859
40 *171:125 *180:37 2.46089e-05
41 *175:50 *1392:RESET_B 6.71882e-05
*RES
1 *1429:X *1392:RESET_B 5.1175 
2 *1392:RESET_B *180:12 2 
3 *180:12 *1409:RESET_B 3.635 
4 *1409:RESET_B *180:25 11.5575 
5 *180:25 *1411:RESET_B 0.7575 
6 *180:25 *180:37 2.87 
7 *180:37 *1395:RESET_B 5.9675 
8 *180:37 *1367:RESET_B 14.58 
9 *180:12 *1365:RESET_B 9.29 
*END

*D_NET *181 0.00353379
*CONN
*I *1447:A I *D sky130_fd_sc_hd__clkbuf_2
*I *1461:X O *D sky130_fd_sc_hd__clkbuf_1
*CAP
1 *1447:A 0.00138797
2 *1461:X 0.00138797
3 *1447:A *1236:A_N 6.53239e-05
4 *1447:A *1247:A1 9.18997e-05
5 *1447:A *1421:A 8.41015e-06
6 *1447:A *188:16 6.06899e-05
7 *1447:A *200:18 0.000420557
8 *1303:A0 *1447:A 4.61701e-06
9 *1455:A *1447:A 0.000106344
*RES
1 *1461:X *1447:A 13.2889 
*END

*D_NET *182 0.0110589
*CONN
*I *1368:RESET_B I *D sky130_fd_sc_hd__dfrtp_1
*I *1370:RESET_B I *D sky130_fd_sc_hd__dfrtp_1
*I *1377:RESET_B I *D sky130_fd_sc_hd__dfrtp_1
*I *1369:RESET_B I *D sky130_fd_sc_hd__dfrtp_1
*I *1372:RESET_B I *D sky130_fd_sc_hd__dfrtp_1
*I *1373:RESET_B I *D sky130_fd_sc_hd__dfrtp_1
*I *1384:RESET_B I *D sky130_fd_sc_hd__dfrtp_1
*I *1385:RESET_B I *D sky130_fd_sc_hd__dfrtp_1
*I *1374:RESET_B I *D sky130_fd_sc_hd__dfrtp_1
*I *1375:RESET_B I *D sky130_fd_sc_hd__dfrtp_1
*I *1430:X O *D sky130_fd_sc_hd__clkbuf_4
*CAP
1 *1368:RESET_B 0.000228763
2 *1370:RESET_B 0
3 *1377:RESET_B 3.22612e-05
4 *1369:RESET_B 3.18172e-05
5 *1372:RESET_B 0.00019925
6 *1373:RESET_B 7.51427e-05
7 *1384:RESET_B 1.15628e-05
8 *1385:RESET_B 2.66004e-05
9 *1374:RESET_B 4.58657e-05
10 *1375:RESET_B 0
11 *1430:X 0.000132205
12 *182:106 0.000638085
13 *182:92 0.00071549
14 *182:63 0.000594716
15 *182:57 0.000899621
16 *182:47 0.000742398
17 *182:33 0.000570394
18 *182:29 0.000692812
19 *182:19 0.000332717
20 *182:10 0.000360589
21 *1368:RESET_B *208:54 0.000433982
22 *1369:RESET_B *1384:CLK 4.73509e-05
23 *1372:RESET_B *1293:A1 0
24 *1372:RESET_B *191:12 0
25 *1377:RESET_B *256:12 4.70393e-05
26 *1385:RESET_B *191:62 2.20753e-05
27 *182:10 *202:8 3.24046e-05
28 *182:10 *209:106 6.71882e-05
29 *182:10 *254:12 8.49205e-05
30 *182:19 *202:8 3.18137e-05
31 *182:33 *191:62 4.66826e-05
32 *182:47 *1308:A1 0.000112349
33 *182:47 *191:90 1.1561e-05
34 *182:47 *263:6 0.000163199
35 *182:57 *1384:CLK 3.04704e-05
36 *182:57 *248:8 1.16077e-05
37 *182:63 *1384:CLK 1.81718e-05
38 *182:63 *191:10 0
39 *182:63 *191:12 0
40 *182:63 *191:43 3.03775e-05
41 *182:92 *196:77 0
42 *182:92 *208:31 0
43 *182:92 *208:54 0
44 *182:106 *194:19 6.97202e-05
45 *182:106 *208:54 0.000162318
46 *182:106 *256:12 9.46525e-06
47 *1241:D1 *182:10 0.000171288
48 *1245:B1 *1372:RESET_B 0
49 *1289:A0 *1372:RESET_B 3.09233e-05
50 *1289:A0 *182:63 0.000386045
51 *1293:A0 *182:47 0.000122331
52 *1293:S *1372:RESET_B 0
53 *1295:S *182:19 3.77199e-05
54 *1295:S *182:29 4.19967e-05
55 *1295:S *182:92 2.24423e-05
56 *1296:S *182:10 0
57 *1296:S *182:19 0.00010344
58 *1298:A0 *1368:RESET_B 0.000265171
59 *1299:A0 *182:47 0.000226855
60 *1308:S *182:47 2.49909e-05
61 *1309:S *182:47 0.000204463
62 *1368:D *1368:RESET_B 4.70343e-05
63 *1369:D *182:63 2.97004e-06
64 *1373:D *1373:RESET_B 1.81788e-05
65 *1374:D *182:19 4.18603e-06
66 *1374:D *182:29 3.26735e-05
67 *1374:D *182:33 0.000123225
68 *1384:D *1384:RESET_B 2.20753e-05
69 *1384:D *182:47 9.07793e-05
70 *1384:D *182:57 0.000195863
71 *1449:A *1372:RESET_B 0.000206116
72 *95:42 *182:19 0
73 *95:42 *182:29 0
74 *95:42 *182:92 0
75 *99:55 *182:10 0.000100729
76 *147:40 *1374:RESET_B 2.56999e-05
77 *148:14 *182:92 0
78 *148:32 *1368:RESET_B 0
79 *150:18 *182:47 5.23362e-05
80 *173:63 *1372:RESET_B 7.07801e-05
81 *173:63 *1373:RESET_B 4.82919e-05
82 *176:28 *182:47 9.80032e-06
83 *176:28 *182:106 8.53113e-06
84 *176:62 *1368:RESET_B 0.000445159
85 *176:62 *182:106 0.000153787
*RES
1 *1430:X *182:10 7.77 
2 *182:10 *1375:RESET_B 2 
3 *182:10 *182:19 4.635 
4 *182:19 *1374:RESET_B 2.7425 
5 *182:19 *182:29 1.38 
6 *182:29 *182:33 7.28 
7 *182:33 *1385:RESET_B 0.3975 
8 *182:33 *182:47 10.465 
9 *182:47 *1384:RESET_B 0.3975 
10 *182:47 *182:57 7.02 
11 *182:57 *182:63 8.27 
12 *182:63 *1373:RESET_B 3.1925 
13 *182:63 *1372:RESET_B 6.185 
14 *182:57 *1369:RESET_B 1.1025 
15 *182:29 *182:92 6.44 
16 *182:92 *1377:RESET_B 0.7425 
17 *182:92 *182:106 8.315 
18 *182:106 *1370:RESET_B 2 
19 *182:106 *1368:RESET_B 10.265 
*END

*D_NET *183 0.00566382
*CONN
*I *1379:RESET_B I *D sky130_fd_sc_hd__dfrtp_1
*I *1387:RESET_B I *D sky130_fd_sc_hd__dfrtp_1
*I *1386:RESET_B I *D sky130_fd_sc_hd__dfrtp_1
*I *1371:RESET_B I *D sky130_fd_sc_hd__dfrtp_1
*I *1383:RESET_B I *D sky130_fd_sc_hd__dfrtp_1
*I *1382:RESET_B I *D sky130_fd_sc_hd__dfrtp_1
*I *1431:X O *D sky130_fd_sc_hd__clkbuf_2
*CAP
1 *1379:RESET_B 0.000122822
2 *1387:RESET_B 5.72541e-05
3 *1386:RESET_B 5.83047e-05
4 *1371:RESET_B 0.000271041
5 *1383:RESET_B 6.26175e-05
6 *1382:RESET_B 0.000417151
7 *1431:X 0
8 *183:61 0.000600442
9 *183:28 0.000409451
10 *183:16 0.00107929
11 *183:12 0.000724323
12 *183:4 0.000500034
13 *1371:RESET_B *1386:CLK 0
14 *1379:RESET_B *1268:A1 0
15 *1379:RESET_B *1379:CLK 0
16 *1383:RESET_B *262:6 5.83121e-06
17 *1386:RESET_B *1256:A1 2.65337e-05
18 *1386:RESET_B *1256:B2 0
19 *183:12 *1256:A1 7.70304e-07
20 *183:16 *1256:A1 5.17476e-05
21 *183:16 *1386:CLK 9.10452e-05
22 *183:16 *1421:A 2.76356e-05
23 *183:61 *1268:A1 0
24 *183:61 *1379:CLK 0
25 *183:61 *1431:A 6.6925e-05
26 *183:61 *266:14 0
27 *1289:S *1371:RESET_B 0.00018305
28 *1289:S *1382:RESET_B 0.000204463
29 *1289:S *183:28 0.000137571
30 *1371:D *1371:RESET_B 0
31 *1383:D *1383:RESET_B 0.000154601
32 *1387:D *183:61 4.70343e-05
33 *1475:A *183:61 1.03423e-05
34 *100:50 *183:61 0.000199345
35 *150:14 *183:12 3.86607e-05
36 *150:14 *183:61 0
37 *172:35 *1382:RESET_B 0.000115531
*RES
1 *1431:X *183:4 1.6 
2 *183:4 *183:12 5.32 
3 *183:12 *183:16 8.66 
4 *183:16 *1382:RESET_B 8.9375 
5 *183:16 *183:28 1.635 
6 *183:28 *1383:RESET_B 3.4325 
7 *183:28 *1371:RESET_B 6.995 
8 *183:12 *1386:RESET_B 1.2675 
9 *183:4 *183:61 9.035 
10 *183:61 *1387:RESET_B 2.7425 
11 *183:61 *1379:RESET_B 3.935 
*END

*D_NET *184 0.0121487
*CONN
*I *1356:RESET_B I *D sky130_fd_sc_hd__dfrtp_1
*I *1388:RESET_B I *D sky130_fd_sc_hd__dfrtp_1
*I *1389:RESET_B I *D sky130_fd_sc_hd__dfrtp_1
*I *1390:RESET_B I *D sky130_fd_sc_hd__dfrtp_1
*I *1378:RESET_B I *D sky130_fd_sc_hd__dfrtp_1
*I *1394:RESET_B I *D sky130_fd_sc_hd__dfrtp_1
*I *1391:RESET_B I *D sky130_fd_sc_hd__dfrtp_1
*I *1361:RESET_B I *D sky130_fd_sc_hd__dfrtp_1
*I *1357:RESET_B I *D sky130_fd_sc_hd__dfrtp_1
*I *1393:RESET_B I *D sky130_fd_sc_hd__dfrtp_1
*I *1432:X O *D sky130_fd_sc_hd__clkbuf_4
*CAP
1 *1356:RESET_B 0.000373595
2 *1388:RESET_B 0.000349899
3 *1389:RESET_B 1.77753e-05
4 *1390:RESET_B 4.02674e-05
5 *1378:RESET_B 0.000129681
6 *1394:RESET_B 0.000141461
7 *1391:RESET_B 0.00099532
8 *1361:RESET_B 0.000323739
9 *1357:RESET_B 0
10 *1393:RESET_B 0.000172897
11 *1432:X 0.000157871
12 *184:109 0.000827376
13 *184:89 0.00041895
14 *184:72 0.00102761
15 *184:48 0.000742283
16 *184:42 0.000604742
17 *184:20 0.000352941
18 *184:8 0.000494499
19 *1356:RESET_B *1364:RESET_B 3.89528e-05
20 *1356:RESET_B *185:25 1.52945e-05
21 *1356:RESET_B *186:66 0
22 *1361:RESET_B *186:66 0.000337934
23 *1378:RESET_B *194:19 0.000130914
24 *1388:RESET_B *194:43 8.53671e-05
25 *1388:RESET_B *267:10 0.000116502
26 *1390:RESET_B *1315:A1 0.000117787
27 *1390:RESET_B *194:19 9.11714e-05
28 *1391:RESET_B *194:81 4.82919e-05
29 *1391:RESET_B *204:20 1.83847e-05
30 *1393:RESET_B *186:49 1.71013e-05
31 *1393:RESET_B *186:66 3.84331e-05
32 *1393:RESET_B *272:8 0.000114324
33 *1394:RESET_B *1320:A1 9.02174e-05
34 *184:8 *1432:A 3.45679e-05
35 *184:20 *186:66 0.000151632
36 *184:42 *216:14 6.42013e-05
37 *184:48 *186:66 0
38 *184:48 *194:81 0.000184712
39 *184:48 *204:20 2.67184e-05
40 *184:48 *216:14 7.23602e-05
41 *184:72 *1320:A1 0.000242354
42 *184:72 *194:87 7.97175e-05
43 *184:89 *1259:A1 9.54469e-05
44 *184:109 *186:66 0
45 *1242:C *1391:RESET_B 0.000178314
46 *1244:B2 *1356:RESET_B 5.4003e-05
47 *1253:B *1391:RESET_B 2.59981e-05
48 *1264:B *184:89 9.54399e-05
49 *1275:B2 *184:72 9.86611e-05
50 *1277:B *1391:RESET_B 4.77082e-05
51 *1278:A0 *1356:RESET_B 0
52 *1278:A0 *1361:RESET_B 0
53 *1278:A0 *1393:RESET_B 0
54 *1278:A0 *184:20 0
55 *1278:A0 *184:48 0.000203755
56 *1278:A0 *184:109 4.44927e-05
57 *1279:A0 *184:48 0.000153816
58 *1279:S *184:48 0.000207092
59 *1283:A0 *1356:RESET_B 0.000298449
60 *1283:S *1356:RESET_B 2.25075e-05
61 *1320:S *184:72 7.16263e-05
62 *88:12 *1394:RESET_B 9.78082e-05
63 *88:12 *184:89 0.000172544
64 *92:27 *1394:RESET_B 5.66282e-05
65 *92:36 *184:89 0
66 *97:35 *184:89 0.000123978
67 *145:20 *1356:RESET_B 7.90039e-05
68 *145:20 *184:109 8.60912e-05
69 *166:10 *1391:RESET_B 0.000605469
70 *166:10 *184:72 4.20028e-05
*RES
1 *1432:X *184:8 5.43 
2 *184:8 *1393:RESET_B 5.2475 
3 *184:8 *184:20 3.165 
4 *184:20 *1357:RESET_B 2 
5 *184:20 *1361:RESET_B 6.74 
6 *1361:RESET_B *184:42 4.3925 
7 *184:42 *184:48 10.025 
8 *184:48 *1391:RESET_B 12.1675 
9 *1391:RESET_B *184:72 13.4725 
10 *184:72 *1394:RESET_B 6.61 
11 *184:72 *184:89 10.48 
12 *184:89 *1378:RESET_B 2.1225 
13 *184:89 *1390:RESET_B 1.4325 
14 *184:48 *1389:RESET_B 0.3075 
15 *184:42 *184:109 2.4 
16 *184:109 *1388:RESET_B 7.2275 
17 *184:109 *1356:RESET_B 10.265 
*END

*D_NET *185 0.00934022
*CONN
*I *1359:RESET_B I *D sky130_fd_sc_hd__dfrtp_1
*I *1376:RESET_B I *D sky130_fd_sc_hd__dfrtp_1
*I *1358:RESET_B I *D sky130_fd_sc_hd__dfrtp_1
*I *1362:RESET_B I *D sky130_fd_sc_hd__dfrtp_1
*I *1366:RESET_B I *D sky130_fd_sc_hd__dfrtp_1
*I *1363:RESET_B I *D sky130_fd_sc_hd__dfrtp_1
*I *1360:RESET_B I *D sky130_fd_sc_hd__dfrtp_1
*I *1364:RESET_B I *D sky130_fd_sc_hd__dfrtp_1
*I *1433:X O *D sky130_fd_sc_hd__buf_2
*CAP
1 *1359:RESET_B 6.22696e-06
2 *1376:RESET_B 0.000229439
3 *1358:RESET_B 0.000759358
4 *1362:RESET_B 5.79935e-06
5 *1366:RESET_B 0.000169366
6 *1363:RESET_B 0.000743228
7 *1360:RESET_B 0
8 *1364:RESET_B 3.22547e-05
9 *1433:X 6.21999e-05
10 *185:77 0.0010426
11 *185:52 0.000839738
12 *185:44 0.00117103
13 *185:25 0.00120363
14 *185:8 0.00055486
15 *1358:RESET_B *195:29 9.75762e-05
16 *1358:RESET_B *195:46 9.27764e-05
17 *1359:RESET_B *195:46 1.13009e-05
18 *1362:RESET_B *186:76 1.37205e-05
19 *1364:RESET_B *186:66 9.5433e-05
20 *1366:RESET_B *1265:A1 0.00015896
21 *1366:RESET_B *186:76 9.09288e-05
22 *1366:RESET_B *205:35 0.000102133
23 *1376:RESET_B *1358:CLK 3.00381e-05
24 *1376:RESET_B *195:25 6.22699e-05
25 *1376:RESET_B *195:29 8.51028e-05
26 *185:8 *243:12 8.40269e-05
27 *185:25 *1219:B2 0.000272978
28 *185:25 *1243:B1_N 0
29 *185:25 *1356:CLK 0
30 *185:25 *186:66 4.9968e-05
31 *185:25 *186:76 0.000127921
32 *185:25 *204:24 0
33 *185:25 *204:63 0
34 *185:25 *215:10 0
35 *185:25 *243:12 0.000123225
36 *185:52 *1281:A0 0
37 *185:52 *186:76 1.23607e-05
38 *185:52 *195:52 0
39 *185:52 *195:54 0
40 *185:77 *195:46 5.18449e-05
41 *185:77 *195:52 0
42 *1242:B *185:52 7.06865e-05
43 *1244:B1 *185:25 0
44 *1276:A1 *1363:RESET_B 2.46073e-05
45 *1276:A1 *185:77 0.000116853
46 *1278:A0 *185:25 0.000131011
47 *1283:S *185:25 0.000160641
48 *1356:RESET_B *1364:RESET_B 3.89528e-05
49 *1356:RESET_B *185:25 1.52945e-05
50 *1360:D *185:25 4.70343e-05
51 *1362:D *185:52 0.000123304
52 *1363:D *185:52 0
53 *1474:A *185:77 0.000110683
54 *97:35 *1366:RESET_B 6.1452e-05
55 *169:12 *1366:RESET_B 5.74016e-05
*RES
1 *1433:X *185:8 4.395 
2 *185:8 *1364:RESET_B 3.125 
3 *185:8 *185:25 14.905 
4 *185:25 *1360:RESET_B 2 
5 *185:25 *1363:RESET_B 10.8875 
6 *1363:RESET_B *185:44 2 
7 *185:44 *185:52 11.465 
8 *185:52 *1366:RESET_B 9.085 
9 *185:52 *1362:RESET_B 0.3975 
10 *185:44 *185:77 9.425 
11 *185:77 *1358:RESET_B 7.83375 
12 *1358:RESET_B *1376:RESET_B 4.14 
13 *185:77 *1359:RESET_B 0.3975 
*END

*D_NET *186 0.0226945
*CONN
*I *1433:A I *D sky130_fd_sc_hd__buf_2
*I *1430:A I *D sky130_fd_sc_hd__clkbuf_4
*I *1427:A I *D sky130_fd_sc_hd__buf_2
*I *1431:A I *D sky130_fd_sc_hd__clkbuf_2
*I *1432:A I *D sky130_fd_sc_hd__clkbuf_4
*I *1429:A I *D sky130_fd_sc_hd__clkbuf_2
*I *1428:A I *D sky130_fd_sc_hd__clkbuf_4
*I *1426:A I *D sky130_fd_sc_hd__clkbuf_4
*I *1434:X O *D sky130_fd_sc_hd__buf_2
*CAP
1 *1433:A 9.86662e-05
2 *1430:A 0
3 *1427:A 0.000584039
4 *1431:A 0.000571141
5 *1432:A 4.13391e-05
6 *1429:A 5.91378e-05
7 *1428:A 0
8 *1426:A 0.00107188
9 *1434:X 0
10 *186:91 0.00109343
11 *186:76 0.00248661
12 *186:66 0.00237603
13 *186:49 0.00137989
14 *186:38 0.00139119
15 *186:8 0.00120618
16 *186:4 0.000999095
17 *1426:A *1260:A1 9.27326e-05
18 *1426:A *1402:CLK 8.65905e-05
19 *1427:A *1211:B 0.000124261
20 *1427:A *1217:A_N 0.000297747
21 *1427:A *1437:A 8.65961e-05
22 *1427:A *201:92 2.88519e-05
23 *1427:A *201:105 6.35952e-05
24 *1427:A *201:122 0
25 *1427:A *254:12 0.000162318
26 *1431:A *204:93 8.34933e-05
27 *1433:A *243:12 4.7101e-05
28 *186:8 *1424:A 0.000163204
29 *186:8 *212:8 2.96334e-05
30 *186:38 *1338:A1 0.000227536
31 *186:38 *1423:A 0.000563613
32 *186:38 *1434:A 0.00016569
33 *186:38 *212:8 2.10134e-05
34 *186:49 *1249:A1 0.000103974
35 *186:49 *1423:A 2.14129e-05
36 *186:49 *244:8 4.76659e-05
37 *186:66 *243:12 0
38 *186:76 *1219:B2 0.000106377
39 *186:76 *1265:A1 1.17309e-05
40 *186:76 *1280:A1 0.000236355
41 *186:76 *1366:CLK 3.90495e-05
42 *186:76 *243:12 1.19928e-05
43 *186:91 *196:90 0.000276191
44 *186:91 *249:10 3.39064e-05
45 *186:91 *253:10 9.54399e-05
46 *1216:S *1427:A 3.09233e-05
47 *1242:B *186:76 0.000351262
48 *1244:B1 *186:76 8.8266e-05
49 *1255:A2 *186:66 5.11035e-05
50 *1257:B1 *186:91 0
51 *1258:A2 *186:91 3.37312e-05
52 *1258:C1 *186:91 0.000137968
53 *1269:A2 *1427:A 1.01661e-05
54 *1269:A2 *186:91 1.65105e-05
55 *1269:B1 *1427:A 3.30948e-05
56 *1273:C1 *1427:A 0.000123295
57 *1275:B2 *186:76 8.09021e-06
58 *1278:A0 *186:49 0
59 *1280:S *186:76 0.00035215
60 *1283:S *186:76 0.000160641
61 *1295:A0 *186:91 7.3664e-05
62 *1329:A0 *186:38 0
63 *1338:A0 *186:38 0
64 *1355:D *1427:A 2.75229e-05
65 *1356:RESET_B *186:66 0
66 *1357:D *186:66 0.000141599
67 *1361:RESET_B *186:66 0.000337934
68 *1362:D *186:76 9.54399e-05
69 *1362:RESET_B *186:76 1.37205e-05
70 *1364:RESET_B *186:66 9.5433e-05
71 *1366:RESET_B *186:76 9.09288e-05
72 *1392:RESET_B *1429:A 5.83121e-06
73 *1393:RESET_B *186:49 1.71013e-05
74 *1393:RESET_B *186:66 3.84331e-05
75 *1400:D *1426:A 8.8266e-05
76 *1400:RESET_B *1426:A 0
77 *1400:RESET_B *186:38 0
78 *1402:RESET_B *1426:A 0.000203037
79 *1459:A *186:38 0
80 *1472:A *186:66 7.34364e-05
81 *1475:A *1431:A 0.000542783
82 *92:42 *1431:A 0.000341885
83 *92:42 *186:76 0.000465398
84 *99:55 *186:91 9.82856e-06
85 *106:35 *1427:A 0.000119219
86 *144:29 *186:76 0.000197264
87 *154:19 *1426:A 8.47629e-05
88 *154:21 *1426:A 3.47837e-05
89 *167:10 *1427:A 5.46877e-05
90 *167:31 *1427:A 2.60986e-05
91 *167:31 *186:91 0.000144873
92 *169:33 *186:76 3.09164e-05
93 *172:50 *186:91 0.000129999
94 *172:52 *186:91 6.45317e-05
95 *174:44 *186:49 0
96 *176:28 *186:91 0.000273702
97 *176:62 *186:91 0.000444179
98 *179:97 *186:38 0
99 *183:61 *1431:A 6.6925e-05
100 *184:8 *1432:A 3.45679e-05
101 *184:20 *186:66 0.000151632
102 *184:48 *186:66 0
103 *184:109 *186:66 0
104 *185:25 *186:66 4.9968e-05
105 *185:25 *186:76 0.000127921
106 *185:52 *186:76 1.23607e-05
*RES
1 *1434:X *186:4 1.6 
2 *186:4 *186:8 2.535 
3 *186:8 *1426:A 24.095 
4 *186:8 *1428:A 1.6 
5 *186:4 *186:38 17.81 
6 *186:38 *1429:A 4.395 
7 *186:38 *186:49 8.52 
8 *186:49 *1432:A 4.395 
9 *186:49 *186:66 19.835 
10 *186:66 *186:76 30.775 
11 *186:76 *1431:A 13.12 
12 *186:76 *186:91 17.915 
13 *186:91 *1427:A 17.025 
14 *186:91 *1430:A 3.6 
15 *186:66 *1433:A 3.355 
*END

*D_NET *187 0.0107235
*CONN
*I *1398:CLK I *D sky130_fd_sc_hd__dfrtp_1
*I *1416:CLK I *D sky130_fd_sc_hd__dfrtp_1
*I *1415:CLK I *D sky130_fd_sc_hd__dfrtp_1
*I *1414:CLK I *D sky130_fd_sc_hd__dfrtp_1
*I *1353:CLK I *D sky130_fd_sc_hd__dfrtp_1
*I *1413:CLK I *D sky130_fd_sc_hd__dfrtp_1
*I *1412:CLK I *D sky130_fd_sc_hd__dfrtp_1
*I *1404:CLK I *D sky130_fd_sc_hd__dfrtp_1
*I *1396:CLK I *D sky130_fd_sc_hd__dfrtp_1
*I *1418:CLK I *D sky130_fd_sc_hd__dfrtp_1
*I *1435:X O *D sky130_fd_sc_hd__clkbuf_2
*CAP
1 *1398:CLK 0
2 *1416:CLK 0.000313224
3 *1415:CLK 0
4 *1414:CLK 0.000585176
5 *1353:CLK 0.000266313
6 *1413:CLK 1.50923e-05
7 *1412:CLK 2.65535e-05
8 *1404:CLK 0.000350336
9 *1396:CLK 2.08101e-05
10 *1418:CLK 0.00021379
11 *1435:X 0
12 *187:78 0.000649321
13 *187:74 0.00105727
14 *187:70 0.000465485
15 *187:59 0.0004237
16 *187:44 0.000494351
17 *187:42 0.000995447
18 *187:29 0.0011845
19 *187:23 0.000725898
20 *187:4 0.000350048
21 *1353:CLK *207:18 0.000347057
22 *1412:CLK *1323:A1 1.7413e-05
23 *1414:CLK *234:10 1.17309e-05
24 *1416:CLK *1322:A 0.000153139
25 *1418:CLK *1435:A 0
26 *187:23 *1435:A 3.64998e-06
27 *187:70 *1237:A1 0.000152136
28 *187:70 *1323:A1 8.45369e-05
29 *187:78 *1343:A1 0
30 *187:78 *207:18 0.000309729
31 *1323:A0 *1404:CLK 2.80419e-05
32 *1323:A0 *187:42 1.15487e-05
33 *1323:A0 *187:44 2.81176e-05
34 *1325:S *187:29 4.33674e-05
35 *1325:S *187:42 4.64656e-05
36 *1333:S *187:78 0
37 *1396:RESET_B *187:42 7.9576e-05
38 *1404:D *1404:CLK 0.000267972
39 *1404:D *187:44 7.14241e-05
40 *1412:RESET_B *187:70 2.40101e-05
41 *1413:D *187:78 0
42 *1415:D *187:78 0.000117825
43 *1415:RESET_B *1414:CLK 3.03775e-05
44 *1416:D *1416:CLK 2.68526e-05
45 *1418:D *1418:CLK 3.89528e-05
46 *107:30 *1416:CLK 0.000104893
47 *110:59 *1413:CLK 2.75229e-05
48 *111:34 *1413:CLK 1.83847e-05
49 *153:12 *1416:CLK 0
50 *173:12 *1353:CLK 9.66106e-05
51 *177:12 *1414:CLK 6.05513e-05
52 *177:34 *1414:CLK 5.95052e-05
53 *177:34 *187:70 0.000122331
54 *177:34 *187:74 8.88108e-06
55 *177:62 *187:78 0
56 *177:80 *1416:CLK 0.000193615
*RES
1 *1435:X *187:4 1.6 
2 *187:4 *1418:CLK 9.05 
3 *187:4 *187:23 4.085 
4 *187:23 *187:29 10.64 
5 *187:29 *1396:CLK 1.96 
6 *187:29 *187:42 8.675 
7 *187:42 *187:44 2.145 
8 *187:44 *1404:CLK 9.72 
9 *187:44 *187:59 2.615 
10 *187:59 *1412:CLK 2.05 
11 *187:59 *187:70 7.02 
12 *187:70 *187:74 1.41 
13 *187:74 *187:78 8.735 
14 *187:78 *1413:CLK 4.05 
15 *187:78 *1353:CLK 9.27 
16 *187:74 *1414:CLK 8.875 
17 *187:70 *1415:CLK 1.6 
18 *187:42 *1416:CLK 10.23 
19 *187:23 *1398:CLK 3.6 
*END

*D_NET *188 0.0085756
*CONN
*I *1381:CLK I *D sky130_fd_sc_hd__dfrtp_1
*I *1397:CLK I *D sky130_fd_sc_hd__dfrtp_1
*I *1417:CLK I *D sky130_fd_sc_hd__dfrtp_1
*I *1380:CLK I *D sky130_fd_sc_hd__dfrtp_1
*I *1399:CLK I *D sky130_fd_sc_hd__dfrtp_1
*I *1352:CLK I *D sky130_fd_sc_hd__dfrtp_1
*I *1405:CLK I *D sky130_fd_sc_hd__dfrtp_1
*I *1419:CLK I *D sky130_fd_sc_hd__dfrtp_1
*I *1436:X O *D sky130_fd_sc_hd__clkbuf_2
*CAP
1 *1381:CLK 0.000110925
2 *1397:CLK 3.37454e-05
3 *1417:CLK 0
4 *1380:CLK 0.000458365
5 *1399:CLK 0
6 *1352:CLK 0.000285905
7 *1405:CLK 0
8 *1419:CLK 0.000157944
9 *1436:X 0.00016929
10 *188:67 0.000480138
11 *188:47 0.000636038
12 *188:39 0.000705119
13 *188:24 0.00105132
14 *188:20 0.000814781
15 *188:16 0.000493489
16 *188:14 0.000485335
17 *1352:CLK *1247:B2 0.00019194
18 *1380:CLK *1236:C 0.000216111
19 *1380:CLK *1236:D 0.000103296
20 *1380:CLK *1246:B2 0
21 *1380:CLK *1349:A1 0
22 *1380:CLK *1421:A 0
23 *1380:CLK *200:18 1.7635e-05
24 *1380:CLK *209:33 4.66108e-05
25 *1419:CLK *1435:A 0
26 *188:14 *192:12 8.57024e-05
27 *188:16 *1435:A 0
28 *188:20 *1435:A 0
29 *188:47 *1349:A1 0
30 *188:67 *1349:A1 0
31 *1303:A0 *1352:CLK 0.000250609
32 *1326:S *188:47 7.08554e-05
33 *1349:S *1419:CLK 0
34 *1380:RESET_B *1380:CLK 4.66108e-05
35 *1397:D *188:20 0
36 *1399:D *188:47 2.04923e-05
37 *1405:RESET_B *1352:CLK 2.65337e-05
38 *1417:D *188:20 4.18603e-06
39 *1417:RESET_B *188:24 1.32907e-06
40 *1417:RESET_B *188:39 1.30699e-05
41 *1447:A *188:16 6.06899e-05
42 *1455:A *188:14 0.00010219
43 *1455:A *188:16 2.33306e-05
44 *1460:A *188:14 0.000128991
45 *1461:A *1381:CLK 5.83121e-06
46 *1461:A *188:14 0
47 *1461:A *188:16 0
48 *107:18 *1380:CLK 0
49 *173:22 *1419:CLK 7.4027e-05
50 *173:33 *1419:CLK 0.000100301
51 *173:46 *1380:CLK 0
52 *175:68 *1352:CLK 2.49909e-05
53 *175:70 *1352:CLK 5.23362e-05
54 *178:20 *1352:CLK 4.68308e-05
55 *178:28 *1352:CLK 0.000104175
56 *178:28 *188:47 0.000549662
57 *178:47 *1380:CLK 3.05295e-05
58 *178:47 *188:47 0.00012526
59 *178:47 *188:67 3.46298e-05
60 *178:49 *188:39 0.000134454
*RES
1 *1436:X *188:14 7.44 
2 *188:14 *188:16 3.93 
3 *188:16 *188:20 6.185 
4 *188:20 *188:24 6.24 
5 *188:24 *1419:CLK 9.02 
6 *188:24 *188:39 6.245 
7 *188:39 *188:47 9.965 
8 *188:47 *1405:CLK 1.6 
9 *188:47 *1352:CLK 13.43 
10 *188:39 *188:67 0.615 
11 *188:67 *1399:CLK 3.6 
12 *188:67 *1380:CLK 12.315 
13 *188:20 *1417:CLK 1.6 
14 *188:16 *1397:CLK 4.05 
15 *188:14 *1381:CLK 5.1 
*END

*D_NET *189 0.0102099
*CONN
*I *1354:CLK I *D sky130_fd_sc_hd__dfrtp_1
*I *1403:CLK I *D sky130_fd_sc_hd__dfrtp_1
*I *1400:CLK I *D sky130_fd_sc_hd__dfrtp_1
*I *1408:CLK I *D sky130_fd_sc_hd__dfrtp_1
*I *1410:CLK I *D sky130_fd_sc_hd__dfrtp_1
*I *1401:CLK I *D sky130_fd_sc_hd__dfrtp_1
*I *1402:CLK I *D sky130_fd_sc_hd__dfrtp_1
*I *1406:CLK I *D sky130_fd_sc_hd__dfrtp_1
*I *1407:CLK I *D sky130_fd_sc_hd__dfrtp_1
*I *1355:CLK I *D sky130_fd_sc_hd__dfrtp_1
*I *1437:X O *D sky130_fd_sc_hd__clkbuf_2
*CAP
1 *1354:CLK 6.21932e-05
2 *1403:CLK 1.85567e-05
3 *1400:CLK 0
4 *1408:CLK 0.000141753
5 *1410:CLK 3.5978e-05
6 *1401:CLK 5.33023e-05
7 *1402:CLK 0.00018421
8 *1406:CLK 0
9 *1407:CLK 0.000317714
10 *1355:CLK 5.14585e-05
11 *1437:X 6.10294e-05
12 *189:101 0.000280728
13 *189:88 0.000547685
14 *189:71 0.000575596
15 *189:69 0.000582673
16 *189:53 0.00135017
17 *189:27 0.00136538
18 *189:21 0.000642695
19 *189:8 0.000394265
20 *1403:CLK *1260:A1 2.14129e-05
21 *1403:CLK *1271:B2 3.05373e-05
22 *1407:CLK *1260:B2 0
23 *1407:CLK *1345:A1 0
24 *1407:CLK *207:51 0
25 *1408:CLK *1234:A1 4.29016e-05
26 *1408:CLK *1234:B2 4.82919e-05
27 *1408:CLK *1422:A 0.000232661
28 *1408:CLK *206:28 3.45679e-05
29 *1410:CLK *1422:A 9.66021e-05
30 *1410:CLK *206:28 6.6925e-05
31 *189:21 *1248:B2 0.000330375
32 *189:27 *1248:B2 0.000137082
33 *189:27 *1344:A1 0.000268292
34 *189:27 *207:45 3.45588e-05
35 *189:53 *1260:A1 7.23602e-05
36 *189:53 *1271:B2 3.67779e-05
37 *189:53 *1336:A0 1.20414e-05
38 *189:53 *207:8 0
39 *189:53 *207:45 1.68057e-05
40 *189:53 *225:12 0.000123304
41 *189:69 *1271:B2 0
42 *189:69 *1331:A0 9.46863e-05
43 *189:69 *1331:A1 7.23533e-05
44 *189:88 *1234:B2 0
45 *189:88 *1331:A0 0
46 *1214:A0 *189:21 8.1919e-05
47 *1215:S *189:21 0
48 *1216:S *189:8 0
49 *1216:S *189:21 0
50 *1234:A2 *1408:CLK 4.66108e-05
51 *1260:A2 *1403:CLK 4.43871e-06
52 *1328:A0 *1402:CLK 0
53 *1328:A0 *189:88 0
54 *1331:S *189:69 0.000369845
55 *1337:B *189:88 0
56 *1344:A0 *189:21 5.4256e-05
57 *1344:A0 *189:27 0.000157918
58 *1345:A0 *1407:CLK 7.35813e-05
59 *1355:D *1355:CLK 5.83121e-06
60 *1355:D *189:8 3.68769e-05
61 *1400:D *1402:CLK 4.61658e-05
62 *1406:D *1407:CLK 0
63 *1406:D *189:27 0
64 *1406:D *189:53 6.6925e-05
65 *1407:RESET_B *1407:CLK 0
66 *1410:D *189:101 0
67 *1414:D *1407:CLK 5.20968e-05
68 *1426:A *1402:CLK 8.65905e-05
69 *1454:A *189:8 5.72091e-05
70 *1454:A *189:21 0
71 *1454:A *189:27 0
72 *87:17 *1355:CLK 7.35813e-05
73 *87:19 *189:21 0
74 *111:34 *1401:CLK 0.0001249
75 *111:34 *189:101 5.21714e-05
76 *155:44 *1354:CLK 4.80182e-05
77 *156:16 *1401:CLK 8.49205e-05
78 *156:16 *189:88 7.89689e-05
79 *160:14 *1407:CLK 0
80 *179:16 *189:69 0.000169112
81 *179:20 *1407:CLK 0
*RES
1 *1437:X *189:8 5.235 
2 *189:8 *1355:CLK 4.74 
3 *189:8 *189:21 6.42 
4 *189:21 *189:27 9.02 
5 *189:27 *1407:CLK 10.925 
6 *189:27 *1406:CLK 1.6 
7 *189:27 *189:53 11.525 
8 *189:53 *189:69 16.08 
9 *189:69 *189:71 2 
10 *189:71 *1402:CLK 6.54 
11 *189:71 *189:88 6.78 
12 *189:88 *1401:CLK 5.085 
13 *189:88 *189:101 3.89 
14 *189:101 *1410:CLK 3.085 
15 *189:101 *1408:CLK 5.5 
16 *189:69 *1400:CLK 1.6 
17 *189:53 *1403:CLK 4.215 
18 *189:21 *1354:CLK 4.74 
*END

*D_NET *190 0.00560974
*CONN
*I *1367:CLK I *D sky130_fd_sc_hd__dfrtp_1
*I *1365:CLK I *D sky130_fd_sc_hd__dfrtp_1
*I *1409:CLK I *D sky130_fd_sc_hd__dfrtp_1
*I *1392:CLK I *D sky130_fd_sc_hd__dfrtp_1
*I *1395:CLK I *D sky130_fd_sc_hd__dfrtp_1
*I *1411:CLK I *D sky130_fd_sc_hd__dfrtp_1
*I *1438:X O *D sky130_fd_sc_hd__dlymetal6s2s_1
*CAP
1 *1367:CLK 0
2 *1365:CLK 0.000179916
3 *1409:CLK 5.56056e-05
4 *1392:CLK 0
5 *1395:CLK 0
6 *1411:CLK 0.000116597
7 *1438:X 0.000162077
8 *190:49 0.000375633
9 *190:40 0.000465711
10 *190:33 0.000505995
11 *190:16 0.000735793
12 *190:10 0.000600877
13 *1365:CLK *206:129 0.000183738
14 *1365:CLK *206:140 0.000324264
15 *1409:CLK *206:129 0.000183043
16 *1411:CLK *207:78 0.000185398
17 *1411:CLK *207:104 4.38051e-05
18 *190:10 *1226:A 0
19 *190:16 *1226:A 0
20 *190:16 *207:64 9.66021e-05
21 *190:16 *207:104 0
22 *190:16 *207:117 0
23 *190:33 *207:64 1.91597e-05
24 *190:40 *1274:A1 3.45679e-05
25 *190:49 *271:8 3.59784e-05
26 *1252:A2 *1365:CLK 0.000172345
27 *1252:A2 *1409:CLK 4.84472e-05
28 *1252:B1 *1365:CLK 1.00941e-05
29 *1252:D1 *1365:CLK 4.70343e-05
30 *1270:C1 *190:10 8.65961e-05
31 *1274:A2 *190:40 0.000275548
32 *1274:B1 *190:40 3.00381e-05
33 *1274:C1 *190:33 4.03804e-05
34 *1274:C1 *190:40 0.000108761
35 *1275:B2 *190:40 4.92062e-05
36 *1320:S *190:10 0
37 *1321:S *190:16 0
38 *1367:D *190:10 4.18603e-06
39 *1367:D *190:16 6.15729e-05
40 *1392:D *1409:CLK 9.30717e-05
41 *1392:D *190:49 6.33103e-05
42 *1395:RESET_B *190:33 7.26176e-06
43 *104:12 *1411:CLK 0
44 *104:12 *190:16 0
45 *152:25 *1365:CLK 0
46 *169:12 *190:10 0.00013994
47 *175:50 *190:49 6.71882e-05
*RES
1 *1438:X *190:10 6.54 
2 *190:10 *190:16 8.945 
3 *190:16 *1411:CLK 8.255 
4 *190:16 *190:33 2.55 
5 *190:33 *1395:CLK 1.6 
6 *190:33 *190:40 6.66 
7 *190:40 *1392:CLK 1.6 
8 *190:40 *190:49 4.52 
9 *190:49 *1409:CLK 5.745 
10 *190:49 *1365:CLK 9.57 
11 *190:10 *1367:CLK 3.6 
*END

*D_NET *191 0.010011
*CONN
*I *1384:CLK I *D sky130_fd_sc_hd__dfrtp_1
*I *1368:CLK I *D sky130_fd_sc_hd__dfrtp_1
*I *1370:CLK I *D sky130_fd_sc_hd__dfrtp_1
*I *1377:CLK I *D sky130_fd_sc_hd__dfrtp_1
*I *1374:CLK I *D sky130_fd_sc_hd__dfrtp_1
*I *1375:CLK I *D sky130_fd_sc_hd__dfrtp_1
*I *1385:CLK I *D sky130_fd_sc_hd__dfrtp_1
*I *1369:CLK I *D sky130_fd_sc_hd__dfrtp_1
*I *1373:CLK I *D sky130_fd_sc_hd__dfrtp_1
*I *1372:CLK I *D sky130_fd_sc_hd__dfrtp_1
*I *1439:X O *D sky130_fd_sc_hd__clkbuf_2
*CAP
1 *1384:CLK 7.94035e-05
2 *1368:CLK 0.000551778
3 *1370:CLK 0
4 *1377:CLK 0.000111494
5 *1374:CLK 0.000127803
6 *1375:CLK 0.000165293
7 *1385:CLK 0
8 *1369:CLK 7.79254e-05
9 *1373:CLK 0.000291551
10 *1372:CLK 0.000197647
11 *1439:X 0.000164839
12 *191:105 0.000871226
13 *191:90 0.000555813
14 *191:68 0.000380125
15 *191:62 0.000677731
16 *191:53 0.000931941
17 *191:43 0.000775826
18 *191:34 0.000308237
19 *191:12 0.000770959
20 *191:10 0.0004466
21 *1368:CLK *1268:A1 5.33787e-05
22 *1368:CLK *1301:A0 0
23 *1368:CLK *196:77 0
24 *1368:CLK *208:54 0
25 *1368:CLK *266:14 5.05521e-05
26 *1372:CLK *196:26 0
27 *1375:CLK *1251:B2 0.00011379
28 *1375:CLK *264:8 5.4003e-05
29 *1384:CLK *248:8 2.79137e-05
30 *191:10 *196:16 4.82863e-05
31 *191:12 *196:26 0
32 *191:53 *1245:A1 0
33 *191:53 *1289:A1 0
34 *191:68 *264:8 0.000110683
35 *191:105 *196:77 0
36 *1247:C1 *1375:CLK 0
37 *1251:C1 *1375:CLK 8.70923e-05
38 *1256:A2 *1368:CLK 5.88045e-05
39 *1287:B *1368:CLK 4.99918e-05
40 *1289:A0 *191:53 0.000143266
41 *1290:S *1368:CLK 0
42 *1299:A0 *191:68 5.44892e-05
43 *1299:A0 *191:90 0.000175214
44 *1369:D *1369:CLK 3.64998e-06
45 *1369:D *191:10 0
46 *1369:D *191:43 0.000115484
47 *1369:RESET_B *1384:CLK 4.73509e-05
48 *1370:D *1368:CLK 0
49 *1372:D *1372:CLK 3.89528e-05
50 *1372:RESET_B *191:12 0
51 *1373:D *1373:CLK 0.000142661
52 *1377:D *191:90 9.54399e-05
53 *1385:RESET_B *191:62 2.20753e-05
54 *1475:A *1368:CLK 0.000138277
55 *95:42 *1368:CLK 3.63701e-06
56 *95:42 *191:105 0.000184053
57 *100:8 *1375:CLK 1.70935e-05
58 *100:27 *1375:CLK 6.99988e-05
59 *100:42 *1375:CLK 0.000102338
60 *100:42 *191:68 9.62108e-05
61 *100:42 *191:90 0.000142046
62 *100:50 *1368:CLK 0
63 *147:40 *1374:CLK 8.67476e-05
64 *150:18 *191:90 2.24905e-05
65 *168:10 *1368:CLK 1.88904e-05
66 *168:25 *1368:CLK 1.26626e-05
67 *173:63 *1372:CLK 0
68 *173:63 *191:12 0
69 *182:33 *191:62 4.66826e-05
70 *182:47 *191:90 1.1561e-05
71 *182:57 *1384:CLK 3.04704e-05
72 *182:63 *1384:CLK 1.81718e-05
73 *182:63 *191:10 0
74 *182:63 *191:12 0
75 *182:63 *191:43 3.03775e-05
*RES
1 *1439:X *191:10 5.94 
2 *191:10 *191:12 4.695 
3 *191:12 *1372:CLK 7.02 
4 *191:12 *1373:CLK 7.425 
5 *191:10 *191:34 2 
6 *191:34 *1369:CLK 2.74 
7 *191:34 *191:43 4.245 
8 *191:43 *191:53 11.275 
9 *191:53 *1385:CLK 1.6 
10 *191:53 *191:62 8.66 
11 *191:62 *191:68 2.7 
12 *191:68 *1375:CLK 7.785 
13 *191:68 *1374:CLK 5.775 
14 *191:62 *191:90 6.185 
15 *191:90 *1377:CLK 3.085 
16 *191:90 *191:105 7.46 
17 *191:105 *1370:CLK 3.6 
18 *191:105 *1368:CLK 13.095 
19 *191:43 *1384:CLK 3.43 
*END

*D_NET *192 0.00493116
*CONN
*I *1445:A I *D sky130_fd_sc_hd__buf_1
*I *1444:A I *D sky130_fd_sc_hd__clkbuf_2
*I *1462:X O *D sky130_fd_sc_hd__buf_1
*CAP
1 *1445:A 0.000988485
2 *1444:A 0
3 *1462:X 0.000311226
4 *192:12 0.00129971
5 *1445:A *1227:A1 0.000199718
6 *1445:A *1229:A_N 4.66826e-05
7 *1445:A *1229:C 9.2741e-05
8 *1445:A *1238:B 4.82919e-05
9 *1445:A *1303:A1 0.000122706
10 *1445:A *197:23 0.000337929
11 *1445:A *197:105 0
12 *1445:A *200:95 0.000233004
13 *1445:A *210:29 8.25606e-05
14 *192:12 *1436:A 4.82863e-05
15 *1227:A2 *1445:A 7.17811e-05
16 *1230:C1 *1445:A 9.5799e-06
17 *1252:B1 *1445:A 1.88656e-05
18 *1303:A0 *1445:A 0.00016031
19 *1304:S *1445:A 0.000196048
20 *1380:D *1445:A 4.8854e-05
21 *1455:A *192:12 0.000139245
22 *1460:A *192:12 5.53249e-06
23 *95:42 *1445:A 7.89034e-05
24 *149:24 *1445:A 3.75126e-05
25 *170:8 *1445:A 1.47256e-05
26 *170:8 *192:12 0.00025276
27 *188:14 *192:12 8.57024e-05
*RES
1 *1462:X *192:12 12.86 
2 *192:12 *1444:A 1.6 
3 *192:12 *1445:A 26.45 
*END

*D_NET *193 0.00568498
*CONN
*I *1387:CLK I *D sky130_fd_sc_hd__dfrtp_1
*I *1379:CLK I *D sky130_fd_sc_hd__dfrtp_1
*I *1386:CLK I *D sky130_fd_sc_hd__dfrtp_1
*I *1371:CLK I *D sky130_fd_sc_hd__dfrtp_1
*I *1383:CLK I *D sky130_fd_sc_hd__dfrtp_1
*I *1382:CLK I *D sky130_fd_sc_hd__dfrtp_1
*I *1440:X O *D sky130_fd_sc_hd__buf_1
*CAP
1 *1387:CLK 2.83889e-05
2 *1379:CLK 0.000119107
3 *1386:CLK 0.000378442
4 *1371:CLK 3.55506e-05
5 *1383:CLK 0
6 *1382:CLK 0.000530236
7 *1440:X 0
8 *193:62 0.000321823
9 *193:43 0.00131827
10 *193:32 0.000838914
11 *193:10 0.000911069
12 *193:4 0.000418691
13 *1382:CLK *196:16 0.000132631
14 *1386:CLK *1256:A1 5.84801e-05
15 *1386:CLK *1267:A1 3.68596e-05
16 *1386:CLK *1307:A 0
17 *1386:CLK *204:105 0
18 *1386:CLK *250:10 6.65804e-05
19 *193:10 *196:10 1.82476e-05
20 *193:10 *196:16 0.000155048
21 *193:43 *250:10 1.8348e-05
22 *193:62 *250:10 4.80182e-05
23 *1267:B1 *1386:CLK 9.44815e-05
24 *1289:S *1386:CLK 0
25 *1306:S *1386:CLK 6.47468e-05
26 *1371:RESET_B *1386:CLK 0
27 *1379:RESET_B *1379:CLK 0
28 *183:16 *1386:CLK 9.10452e-05
29 *183:61 *1379:CLK 0
*RES
1 *1440:X *193:4 1.6 
2 *193:4 *193:10 8.525 
3 *193:10 *1382:CLK 11.445 
4 *193:10 *1383:CLK 3.6 
5 *193:4 *193:32 0.45 
6 *193:32 *1371:CLK 2.215 
7 *193:32 *193:43 8.655 
8 *193:43 *1386:CLK 13.865 
9 *193:43 *193:62 2.865 
10 *193:62 *1379:CLK 7.49 
11 *193:62 *1387:CLK 2.05 
*END

*D_NET *194 0.0121043
*CONN
*I *1356:CLK I *D sky130_fd_sc_hd__dfrtp_1
*I *1361:CLK I *D sky130_fd_sc_hd__dfrtp_1
*I *1389:CLK I *D sky130_fd_sc_hd__dfrtp_1
*I *1394:CLK I *D sky130_fd_sc_hd__dfrtp_1
*I *1391:CLK I *D sky130_fd_sc_hd__dfrtp_1
*I *1357:CLK I *D sky130_fd_sc_hd__dfrtp_1
*I *1393:CLK I *D sky130_fd_sc_hd__dfrtp_1
*I *1388:CLK I *D sky130_fd_sc_hd__dfrtp_1
*I *1390:CLK I *D sky130_fd_sc_hd__dfrtp_1
*I *1378:CLK I *D sky130_fd_sc_hd__dfrtp_1
*I *1441:X O *D sky130_fd_sc_hd__clkbuf_2
*CAP
1 *1356:CLK 0.000454622
2 *1361:CLK 5.10415e-05
3 *1389:CLK 0
4 *1394:CLK 0
5 *1391:CLK 6.016e-05
6 *1357:CLK 7.65917e-05
7 *1393:CLK 0.00027056
8 *1388:CLK 0.000102431
9 *1390:CLK 0
10 *1378:CLK 0
11 *1441:X 3.81169e-05
12 *194:87 0.000405242
13 *194:81 0.000961789
14 *194:49 0.000384022
15 *194:47 0.000727144
16 *194:45 0.000206171
17 *194:43 0.000667319
18 *194:32 0.000447632
19 *194:19 0.00080013
20 *194:10 0.00062418
21 *1356:CLK *1219:B2 5.42473e-05
22 *1356:CLK *204:20 0
23 *1361:CLK *1451:A 2.49909e-05
24 *1388:CLK *205:25 0.0001613
25 *1393:CLK *1250:A1 8.15676e-05
26 *1393:CLK *206:140 0.000358944
27 *1393:CLK *272:8 0.000102922
28 *194:10 *208:54 7.89689e-05
29 *194:19 *1315:A1 0.000151104
30 *194:32 *1282:A 0.000138016
31 *194:32 *205:19 7.5416e-05
32 *194:43 *267:10 3.06477e-05
33 *194:45 *1425:A 0
34 *194:47 *1425:A 0
35 *194:47 *1451:A 0.000127373
36 *194:47 *206:140 5.16418e-05
37 *194:49 *206:140 0.00013994
38 *194:81 *268:10 4.66108e-05
39 *194:87 *1320:A1 0.000272984
40 *1242:C *194:32 9.86532e-05
41 *1244:B1 *1356:CLK 0
42 *1252:D1 *1393:CLK 7.97083e-05
43 *1278:A0 *1356:CLK 0
44 *1278:A0 *194:45 0
45 *1282:B *1356:CLK 0
46 *1313:S *1356:CLK 0.000192876
47 *1313:S *194:45 5.23362e-05
48 *1314:A0 *1357:CLK 9.2741e-05
49 *1314:S *1393:CLK 9.50342e-06
50 *1314:S *194:45 0.000109009
51 *1314:S *194:47 0.00021831
52 *1314:S *194:49 0.000129728
53 *1364:D *1356:CLK 0
54 *1378:RESET_B *194:19 0.000130914
55 *1388:D *194:32 0.000157343
56 *1388:RESET_B *194:43 8.53671e-05
57 *1390:RESET_B *194:19 9.11714e-05
58 *1391:RESET_B *194:81 4.82919e-05
59 *1394:D *194:87 4.66826e-05
60 *97:35 *1391:CLK 0.000203074
61 *144:29 *1356:CLK 5.5761e-05
62 *148:14 *194:10 0.000143266
63 *151:32 *1388:CLK 0.000253954
64 *151:32 *194:43 0.000170127
65 *169:12 *1391:CLK 0.0002014
66 *176:20 *194:19 0.000840243
67 *176:20 *194:32 0.000185826
68 *182:106 *194:19 6.97202e-05
69 *184:48 *194:81 0.000184712
70 *184:72 *194:87 7.97175e-05
71 *185:25 *1356:CLK 0
*RES
1 *1441:X *194:10 7.235 
2 *194:10 *1378:CLK 1.6 
3 *194:10 *194:19 14.955 
4 *194:19 *1390:CLK 1.6 
5 *194:19 *194:32 10.39 
6 *194:32 *1388:CLK 5.5 
7 *194:32 *194:43 5.21 
8 *194:43 *194:45 1.89 
9 *194:45 *194:47 2.655 
10 *194:47 *194:49 1.635 
11 *194:49 *1393:CLK 10.305 
12 *194:49 *1357:CLK 5.085 
13 *194:47 *194:81 10.19 
14 *194:81 *194:87 6.435 
15 *194:87 *1391:CLK 8 
16 *194:87 *1394:CLK 1.6 
17 *194:81 *1389:CLK 1.6 
18 *194:45 *1361:CLK 4.395 
19 *194:43 *1356:CLK 11.865 
*END

*D_NET *195 0.0092638
*CONN
*I *1358:CLK I *D sky130_fd_sc_hd__dfrtp_1
*I *1363:CLK I *D sky130_fd_sc_hd__dfrtp_1
*I *1360:CLK I *D sky130_fd_sc_hd__dfrtp_1
*I *1362:CLK I *D sky130_fd_sc_hd__dfrtp_1
*I *1366:CLK I *D sky130_fd_sc_hd__dfrtp_1
*I *1364:CLK I *D sky130_fd_sc_hd__dfrtp_1
*I *1359:CLK I *D sky130_fd_sc_hd__dfrtp_1
*I *1376:CLK I *D sky130_fd_sc_hd__dfrtp_1
*I *1442:X O *D sky130_fd_sc_hd__clkbuf_2
*CAP
1 *1358:CLK 2.18733e-05
2 *1363:CLK 0
3 *1360:CLK 9.28264e-05
4 *1362:CLK 3.37585e-05
5 *1366:CLK 0.000240849
6 *1364:CLK 0.000230521
7 *1359:CLK 3.55506e-05
8 *1376:CLK 0.000453871
9 *1442:X 0.000163131
10 *195:56 0.000577706
11 *195:54 0.000321029
12 *195:52 0.000424867
13 *195:46 0.00101086
14 *195:29 0.00147435
15 *195:25 0.000704943
16 *195:12 0.000721019
17 *1366:CLK *1280:A1 0.000236355
18 *1376:CLK *1301:A0 3.99879e-05
19 *195:12 *1301:A0 0
20 *195:12 *255:16 0
21 *195:25 *255:16 4.82863e-05
22 *1219:A2 *1364:CLK 0.000123225
23 *1242:B *195:54 0
24 *1242:B *195:56 0
25 *1242:C *1364:CLK 6.95505e-05
26 *1242:C *195:56 2.97004e-06
27 *1276:A1 *195:46 0
28 *1280:A0 *1364:CLK 0
29 *1280:A0 *1366:CLK 2.49909e-05
30 *1280:S *1366:CLK 0.000316415
31 *1281:S *1360:CLK 4.66108e-05
32 *1281:S *195:54 0.000127373
33 *1282:B *1364:CLK 6.83538e-05
34 *1285:S *1364:CLK 0.000219316
35 *1298:S *195:12 0.0001249
36 *1301:S *195:12 4.82863e-05
37 *1358:RESET_B *195:29 9.75762e-05
38 *1358:RESET_B *195:46 9.27764e-05
39 *1359:RESET_B *195:46 1.13009e-05
40 *1363:D *195:52 3.39151e-05
41 *1376:D *1376:CLK 0.000253946
42 *1376:D *195:12 9.47454e-05
43 *1376:RESET_B *1358:CLK 3.00381e-05
44 *1376:RESET_B *195:25 6.22699e-05
45 *1376:RESET_B *195:29 8.51028e-05
46 *1474:A *195:46 0
47 *144:40 *195:54 0.000210846
48 *144:40 *195:56 0.00015829
49 *169:33 *1364:CLK 3.83194e-05
50 *185:52 *195:52 0
51 *185:52 *195:54 0
52 *185:77 *195:46 5.18449e-05
53 *185:77 *195:52 0
54 *186:76 *1366:CLK 3.90495e-05
*RES
1 *1442:X *195:12 8.465 
2 *195:12 *1376:CLK 7.855 
3 *195:12 *195:25 2.175 
4 *195:25 *195:29 7.365 
5 *195:29 *1359:CLK 2.215 
6 *195:29 *195:46 13.43 
7 *195:46 *195:52 2.7 
8 *195:52 *195:54 4.185 
9 *195:54 *195:56 2.145 
10 *195:56 *1364:CLK 9.3 
11 *195:56 *1366:CLK 9.225 
12 *195:54 *1362:CLK 4.05 
13 *195:52 *1360:CLK 5.085 
14 *195:46 *1363:CLK 3.6 
15 *195:25 *1358:CLK 2.41 
*END

*D_NET *196 0.0198058
*CONN
*I *1438:A I *D sky130_fd_sc_hd__dlymetal6s2s_1
*I *1437:A I *D sky130_fd_sc_hd__clkbuf_2
*I *1441:A I *D sky130_fd_sc_hd__clkbuf_2
*I *1442:A I *D sky130_fd_sc_hd__clkbuf_2
*I *1440:A I *D sky130_fd_sc_hd__buf_1
*I *1439:A I *D sky130_fd_sc_hd__clkbuf_2
*I *1436:A I *D sky130_fd_sc_hd__clkbuf_2
*I *1435:A I *D sky130_fd_sc_hd__clkbuf_2
*I *1443:X O *D sky130_fd_sc_hd__buf_2
*CAP
1 *1438:A 0.000752215
2 *1437:A 0.000589241
3 *1441:A 0
4 *1442:A 0
5 *1440:A 0
6 *1439:A 0
7 *1436:A 2.55105e-05
8 *1435:A 0.00105603
9 *1443:X 0
10 *196:90 0.00159596
11 *196:77 0.000935646
12 *196:62 0.00223833
13 *196:26 0.00207196
14 *196:16 0.00161526
15 *196:10 0.000952777
16 *196:4 0.00188513
17 *1435:A *209:25 8.21686e-05
18 *1437:A *1296:A0 0.000100471
19 *1437:A *197:105 9.30787e-05
20 *1437:A *197:120 0.000250622
21 *1437:A *209:106 0.000374947
22 *1438:A *1226:A 0
23 *196:10 *1443:A 0.000165698
24 *196:16 *1256:A1 0
25 *196:16 *1305:A1 0
26 *196:77 *1301:A0 0
27 *196:90 *1296:A0 7.30547e-05
28 *196:90 *208:31 0.000384378
29 *196:90 *208:54 0.000158297
30 *1241:D1 *1437:A 7.23533e-05
31 *1251:A2 *1437:A 0.000120655
32 *1251:A2 *1438:A 0.000495211
33 *1254:A2 *1438:A 0.000100162
34 *1268:A2 *196:77 0.000178314
35 *1269:B1 *1437:A 5.46798e-05
36 *1270:C1 *1438:A 4.66108e-05
37 *1290:S *196:77 6.65891e-05
38 *1299:S *196:77 4.82863e-05
39 *1300:S *196:77 4.66108e-05
40 *1300:S *196:90 0.000148084
41 *1301:S *196:62 0.000169652
42 *1301:S *196:77 2.75145e-05
43 *1368:CLK *196:77 0
44 *1370:D *196:77 0
45 *1371:D *196:16 0
46 *1372:CLK *196:26 0
47 *1381:D *1435:A 0.00011852
48 *1381:RESET_B *1435:A 0
49 *1382:CLK *196:16 0.000132631
50 *1382:D *196:16 5.34747e-05
51 *1382:D *196:26 6.96579e-05
52 *1397:D *1435:A 4.70343e-05
53 *1397:RESET_B *1435:A 0
54 *1417:D *1435:A 0
55 *1418:CLK *1435:A 0
56 *1418:D *1435:A 0.000110441
57 *1419:CLK *1435:A 0
58 *1427:A *1437:A 8.65961e-05
59 *1454:A *1437:A 0.000339833
60 *1455:A *1435:A 0
61 *1455:A *196:26 0
62 *97:35 *1438:A 7.23533e-05
63 *146:44 *196:77 1.44259e-05
64 *148:14 *196:77 0.000402718
65 *148:32 *196:77 0.000247664
66 *166:10 *1438:A 0.000149279
67 *167:10 *1437:A 1.73877e-05
68 *167:31 *1437:A 4.24292e-06
69 *167:31 *196:90 5.16418e-05
70 *169:12 *1438:A 0.000312778
71 *176:28 *196:90 4.9968e-05
72 *178:59 *1435:A 0
73 *182:92 *196:77 0
74 *186:91 *196:90 0.000276191
75 *187:23 *1435:A 3.64998e-06
76 *188:16 *1435:A 0
77 *188:20 *1435:A 0
78 *191:10 *196:16 4.82863e-05
79 *191:12 *196:26 0
80 *191:105 *196:77 0
81 *192:12 *1436:A 4.82863e-05
82 *193:10 *196:10 1.82476e-05
83 *193:10 *196:16 0.000155048
*RES
1 *1443:X *196:4 1.6 
2 *196:4 *196:10 6.59 
3 *196:10 *196:16 14.735 
4 *196:16 *196:26 18.365 
5 *196:26 *1435:A 22.695 
6 *196:26 *1436:A 4.05 
7 *196:16 *1439:A 1.6 
8 *196:10 *1440:A 3.6 
9 *196:4 *196:62 17.715 
10 *196:62 *1442:A 1.6 
11 *196:62 *196:77 19.12 
12 *196:77 *1441:A 1.6 
13 *196:77 *196:90 12.475 
14 *196:90 *1437:A 19.625 
15 *196:90 *1438:A 17.765 
*END

*D_NET *197 0.0127895
*CONN
*I *1229:B_N I *D sky130_fd_sc_hd__and4bb_1
*I *1224:B_N I *D sky130_fd_sc_hd__and4bb_2
*I *1217:A_N I *D sky130_fd_sc_hd__and4b_2
*I *1218:B I *D sky130_fd_sc_hd__nor4b_1
*I *1211:C I *D sky130_fd_sc_hd__and4_1
*I *1239:B I *D sky130_fd_sc_hd__and4b_2
*I *1222:B I *D sky130_fd_sc_hd__nor4b_1
*I *1228:A_N I *D sky130_fd_sc_hd__and4bb_2
*I *1236:C I *D sky130_fd_sc_hd__and4bb_2
*I *1238:B I *D sky130_fd_sc_hd__and4b_2
*I *1444:X O *D sky130_fd_sc_hd__clkbuf_2
*CAP
1 *1229:B_N 0
2 *1224:B_N 4.20758e-05
3 *1217:A_N 0.000238878
4 *1218:B 1.85694e-05
5 *1211:C 6.41672e-05
6 *1239:B 0.00018624
7 *1222:B 0.000413807
8 *1228:A_N 2.09808e-05
9 *1236:C 0.000296171
10 *1238:B 0.000359653
11 *1444:X 0
12 *197:120 0.000414477
13 *197:105 0.00063329
14 *197:95 0.000599778
15 *197:78 0.000427455
16 *197:74 0.000330933
17 *197:49 0.000858008
18 *197:40 0.000555736
19 *197:23 0.0007243
20 *197:4 0.000461901
21 *1211:C *199:34 4.66108e-05
22 *1211:C *199:49 3.57349e-05
23 *1217:A_N *1218:A 1.46828e-05
24 *1217:A_N *1218:C 1.16578e-05
25 *1217:A_N *201:122 0
26 *1217:A_N *209:106 0.000115779
27 *1218:B *1232:B 0
28 *1222:B *1222:A 1.65105e-05
29 *1222:B *1222:C 0.000180398
30 *1222:B *1222:D_N 0
31 *1222:B *1292:A 4.36573e-06
32 *1222:B *209:37 1.94892e-05
33 *1224:B_N *210:29 7.63883e-05
34 *1236:C *1247:A1 5.05066e-06
35 *1236:C *1421:A 0
36 *1238:B *1238:C 0.000349592
37 *1238:B *209:25 5.83121e-06
38 *1238:B *260:10 4.26188e-05
39 *1239:B *1239:C 0
40 *1239:B *1247:A1 0.000111918
41 *1239:B *201:82 3.57846e-05
42 *1239:B *201:92 5.53249e-06
43 *197:40 *1230:A1 4.86753e-05
44 *197:40 *1293:A1 2.39461e-05
45 *197:49 *1222:C 4.35348e-05
46 *197:49 *1230:A1 7.18079e-05
47 *197:49 *200:50 0.000119762
48 *197:74 *1222:C 2.75229e-05
49 *197:74 *1230:A1 0.00011745
50 *197:74 *1230:B2 7.25921e-06
51 *197:78 *1303:A1 0
52 *197:78 *200:87 0.000175682
53 *197:95 *1247:A1 5.82176e-05
54 *197:105 *1227:A1 0
55 *197:105 *201:92 0.000471308
56 *197:120 *1218:A 2.75145e-05
57 *197:120 *1233:B_N 9.80943e-06
58 *197:120 *209:126 8.23457e-05
59 *1227:A2 *1224:B_N 3.31282e-05
60 *1227:A2 *197:105 4.43871e-06
61 *1230:C1 *1222:B 0
62 *1230:C1 *197:74 9.766e-05
63 *1230:C1 *197:78 4.46999e-05
64 *1247:C1 *197:74 0.00018305
65 *1247:C1 *197:78 0.00026082
66 *1251:C1 *1224:B_N 0.000129047
67 *1251:C1 *197:105 0.000179015
68 *1252:B1 *197:105 6.57653e-06
69 *1269:A2 *1217:A_N 0.000101317
70 *1269:B1 *197:105 7.06865e-05
71 *1269:B1 *197:120 0.000259146
72 *1292:B *1222:B 3.67779e-05
73 *1304:S *1236:C 0
74 *1380:CLK *1236:C 0.000216111
75 *1380:D *1236:C 3.17252e-05
76 *1381:D *1238:B 0.000137454
77 *1381:RESET_B *1238:B 9.21595e-05
78 *1427:A *1217:A_N 0.000297747
79 *1437:A *197:105 9.30787e-05
80 *1437:A *197:120 0.000250622
81 *1445:A *1238:B 4.82919e-05
82 *1445:A *197:23 0.000337929
83 *1445:A *197:105 0
84 *1448:A *1236:C 0
85 *1448:A *197:40 0
86 *1449:A *197:40 0
87 *89:12 *1217:A_N 1.85674e-05
88 *93:14 *1222:B 1.88602e-05
89 *95:18 *197:95 8.23457e-05
90 *106:12 *197:105 0.00049767
91 *110:10 *197:105 1.26548e-05
92 *149:24 *1222:B 1.14262e-05
93 *167:10 *197:120 8.40269e-05
94 *170:8 *1238:B 2.75229e-05
95 *170:8 *197:23 0.000115762
96 *173:63 *1236:C 0
97 *173:63 *1238:B 0
*RES
1 *1444:X *197:4 1.6 
2 *197:4 *1238:B 13.79 
3 *197:4 *197:23 5.21 
4 *197:23 *1236:C 8.55 
5 *197:23 *197:40 6.95 
6 *197:40 *1228:A_N 1.96 
7 *197:40 *197:49 3.555 
8 *197:49 *1222:B 9.94433 
9 *197:49 *197:74 7.355 
10 *197:74 *197:78 5.165 
11 *197:78 *1239:B 8.3 
12 *197:78 *197:95 3.83 
13 *197:95 *197:105 14.875 
14 *197:105 *1211:C 4.395 
15 *197:105 *197:120 6.65 
16 *197:120 *1218:B 1.96 
17 *197:120 *1217:A_N 11.66 
18 *197:95 *1224:B_N 5.235 
19 *197:74 *1229:B_N 3.6 
*END

*D_NET *198 0.00673131
*CONN
*I *1233:C I *D sky130_fd_sc_hd__and4bb_2
*I *1232:A I *D sky130_fd_sc_hd__and3_2
*I *1226:C I *D sky130_fd_sc_hd__or4_2
*I *1221:A_N I *D sky130_fd_sc_hd__and3b_2
*I *1231:C I *D sky130_fd_sc_hd__and3b_2
*I *1225:C I *D sky130_fd_sc_hd__nor4_1
*I *1235:C I *D sky130_fd_sc_hd__and4b_2
*I *1445:X O *D sky130_fd_sc_hd__buf_1
*CAP
1 *1233:C 0
2 *1232:A 0
3 *1226:C 0.000134452
4 *1221:A_N 0.000177545
5 *1231:C 0
6 *1225:C 0.000509717
7 *1235:C 0
8 *1445:X 0.000125707
9 *198:49 0.000409707
10 *198:45 0.000129483
11 *198:38 9.40361e-05
12 *198:23 0.000633124
13 *198:19 0.000223611
14 *198:12 0.000288174
15 *1221:A_N *1220:A 3.75126e-05
16 *1221:A_N *201:122 0.000195865
17 *1225:C *1233:B_N 0.000528272
18 *1225:C *199:53 1.34503e-05
19 *1225:C *201:122 2.16917e-05
20 *1226:C *1217:C 1.71207e-05
21 *1226:C *1220:B 0.000183043
22 *1226:C *1226:D 0.000122331
23 *198:12 *199:34 4.66108e-05
24 *198:12 *202:16 4.82863e-05
25 *198:19 *1211:A 8.65905e-05
26 *198:19 *1233:D 4.99619e-05
27 *198:19 *199:34 0.000403372
28 *198:19 *199:49 0.00017305
29 *198:19 *202:16 0.000155497
30 *198:19 *202:25 0.000590659
31 *198:23 *1233:B_N 6.76985e-05
32 *198:23 *199:49 0.000132467
33 *198:38 *1232:B 2.87395e-05
34 *198:38 *1233:B_N 1.07797e-05
35 *198:38 *199:49 7.5416e-05
36 *198:38 *199:53 4.66108e-05
37 *198:38 *199:80 2.07184e-05
38 *198:38 *201:105 4.24292e-06
39 *198:38 *201:122 5.16418e-05
40 *198:45 *1232:B 6.53637e-05
41 *198:49 *1217:C 4.43871e-06
42 *198:49 *1220:B 9.50342e-06
43 *198:49 *1226:B 1.95461e-05
44 *1221:C *1221:A_N 5.01066e-05
45 *1227:A2 *198:12 5.21143e-05
46 *1232:C *1221:A_N 1.08758e-05
47 *1232:C *198:49 3.67779e-05
48 *1247:A2 *198:12 0
49 *1258:B1 *198:49 3.50297e-05
50 *1270:C1 *1221:A_N 6.48629e-05
51 *1469:A *1225:C 1.12578e-05
52 *89:12 *198:38 0.000100213
53 *89:12 *198:45 0.000139511
54 *91:14 *1221:A_N 4.66108e-05
55 *91:14 *198:49 1.7635e-05
56 *92:10 *1226:C 0.000139238
57 *95:33 *198:12 7.00889e-06
58 *96:8 *1225:C 8.40269e-05
*RES
1 *1445:X *198:12 4.255 
2 *198:12 *1235:C 1.6 
3 *198:12 *198:19 7.005 
4 *198:19 *198:23 3.635 
5 *198:23 *1225:C 10.26 
6 *198:23 *198:38 4.0925 
7 *198:38 *1231:C 1.6 
8 *198:38 *198:45 1.3125 
9 *198:45 *198:49 3.635 
10 *198:49 *1221:A_N 7.17 
11 *198:49 *1226:C 7.23 
12 *198:45 *1232:A 1.6 
13 *198:19 *1233:C 1.6 
*END

*D_NET *199 0.00746671
*CONN
*I *1225:D I *D sky130_fd_sc_hd__nor4_1
*I *1226:D I *D sky130_fd_sc_hd__or4_2
*I *1217:B I *D sky130_fd_sc_hd__and4b_2
*I *1221:B I *D sky130_fd_sc_hd__and3b_2
*I *1232:B I *D sky130_fd_sc_hd__and3_2
*I *1231:A_N I *D sky130_fd_sc_hd__and3b_2
*I *1218:C I *D sky130_fd_sc_hd__nor4b_1
*I *1211:D I *D sky130_fd_sc_hd__and4_1
*I *1235:D I *D sky130_fd_sc_hd__and4b_2
*I *1229:C I *D sky130_fd_sc_hd__and4bb_1
*I *1446:X O *D sky130_fd_sc_hd__clkbuf_2
*CAP
1 *1225:D 2.01864e-05
2 *1226:D 9.20193e-05
3 *1217:B 0
4 *1221:B 0
5 *1232:B 0.000204651
6 *1231:A_N 0
7 *1218:C 3.69153e-05
8 *1211:D 0
9 *1235:D 0
10 *1229:C 0.000154928
11 *1446:X 0
12 *199:93 0.000202869
13 *199:80 0.000219661
14 *199:53 7.76346e-05
15 *199:51 0.00024537
16 *199:49 0.000493654
17 *199:34 0.000605469
18 *199:27 0.000452618
19 *199:19 0.000476811
20 *199:4 0.000379562
21 *1218:C *1218:A 8.65905e-05
22 *1218:C *201:122 4.82919e-05
23 *1225:D *209:98 8.40269e-05
24 *1226:D *1220:B 7.40446e-05
25 *1226:D *209:106 8.41307e-05
26 *1229:C *1233:B_N 3.31103e-05
27 *1229:C *200:95 1.47347e-05
28 *1229:C *210:29 5.22918e-05
29 *199:19 *1233:B_N 0.000163907
30 *199:19 *1269:B2 0.000135923
31 *199:19 *1296:A0 1.08758e-05
32 *199:19 *202:8 3.76596e-05
33 *199:27 *1227:A1 0
34 *199:27 *1233:B_N 1.88656e-05
35 *199:27 *1235:B 0.00011998
36 *199:27 *1269:B2 0.000306232
37 *199:27 *202:10 1.80446e-05
38 *199:27 *202:16 2.34423e-05
39 *199:27 *210:33 9.0444e-05
40 *199:34 *1235:B 4.66108e-05
41 *199:49 *1211:A 8.65905e-05
42 *199:49 *1233:B_N 9.29751e-06
43 *199:49 *1233:D 8.65905e-05
44 *199:49 *202:25 0
45 *199:53 *201:122 3.66286e-05
46 *199:80 *201:122 5.64123e-05
47 *199:93 *209:106 8.49205e-05
48 *1211:C *199:34 4.66108e-05
49 *1211:C *199:49 3.57349e-05
50 *1217:A_N *1218:C 1.16578e-05
51 *1218:B *1232:B 0
52 *1221:C *199:80 1.7635e-05
53 *1225:C *199:53 1.34503e-05
54 *1226:C *1226:D 0.000122331
55 *1231:B *199:49 7.47145e-05
56 *1231:B *199:80 0.000100111
57 *1258:B1 *199:80 5.95586e-05
58 *1258:B1 *199:93 7.89689e-05
59 *1269:A2 *199:80 0
60 *1269:A2 *199:93 0
61 *1273:B1 *199:49 5.87938e-05
62 *1445:A *1229:C 9.2741e-05
63 *1454:A *199:19 0
64 *1469:A *1225:D 8.40269e-05
65 *89:12 *1218:C 3.00381e-05
66 *89:12 *1232:B 2.46298e-05
67 *89:12 *199:53 4.0843e-05
68 *102:8 *1232:B 4.77757e-05
69 *102:10 *199:49 2.94708e-05
70 *106:12 *199:27 3.32709e-05
71 *198:12 *199:34 4.66108e-05
72 *198:19 *199:34 0.000403372
73 *198:19 *199:49 0.00017305
74 *198:23 *199:49 0.000132467
75 *198:38 *1232:B 2.87395e-05
76 *198:38 *199:49 7.5416e-05
77 *198:38 *199:53 4.66108e-05
78 *198:38 *199:80 2.07184e-05
79 *198:45 *1232:B 6.53637e-05
*RES
1 *1446:X *199:4 1.6 
2 *199:4 *1229:C 4.48 
3 *199:4 *199:19 5.975 
4 *199:19 *199:27 7.595 
5 *199:27 *1235:D 1.6 
6 *199:27 *199:34 4.245 
7 *199:34 *1211:D 1.6 
8 *199:34 *199:49 8.93 
9 *199:49 *199:51 2 
10 *199:51 *199:53 1.14 
11 *199:53 *1218:C 2.74 
12 *199:53 *1231:A_N 1.6 
13 *199:51 *1232:B 5.2 
14 *199:49 *199:80 2.655 
15 *199:80 *1221:B 3.6 
16 *199:80 *199:93 4.43 
17 *199:93 *1217:B 1.6 
18 *199:93 *1226:D 3.775 
19 *199:19 *1225:D 4.395 
*END

*D_NET *200 0.0114852
*CONN
*I *1224:C I *D sky130_fd_sc_hd__and4bb_2
*I *1233:B_N I *D sky130_fd_sc_hd__and4bb_2
*I *1446:A I *D sky130_fd_sc_hd__clkbuf_2
*I *1239:A_N I *D sky130_fd_sc_hd__and4b_2
*I *1222:C I *D sky130_fd_sc_hd__nor4b_1
*I *1228:B_N I *D sky130_fd_sc_hd__and4bb_2
*I *1236:B_N I *D sky130_fd_sc_hd__and4bb_2
*I *1238:C I *D sky130_fd_sc_hd__and4b_2
*I *1447:X O *D sky130_fd_sc_hd__clkbuf_2
*CAP
1 *1224:C 0
2 *1233:B_N 0.000511403
3 *1446:A 0
4 *1239:A_N 0
5 *1222:C 0.000176152
6 *1228:B_N 0
7 *1236:B_N 0
8 *1238:C 0.000198307
9 *1447:X 0
10 *200:95 0.000643586
11 *200:87 0.000464743
12 *200:72 0.000420667
13 *200:50 0.000452705
14 *200:40 0.000510275
15 *200:18 0.000708158
16 *200:4 0.000655466
17 *1222:C *1230:A1 0.000122325
18 *1222:C *1230:B2 0
19 *1222:C *1292:A 3.09164e-05
20 *1233:B_N *1218:A 0.000160635
21 *1233:B_N *1229:D 0.000187281
22 *1233:B_N *1269:B2 3.15822e-05
23 *1233:B_N *201:92 8.53113e-06
24 *1233:B_N *201:105 0.000173904
25 *1233:B_N *201:122 3.57349e-05
26 *1233:B_N *202:8 2.92496e-05
27 *1233:B_N *202:10 0.000104132
28 *1233:B_N *209:98 7.99196e-05
29 *1233:B_N *209:126 7.79847e-05
30 *1238:C *1236:D 4.82919e-05
31 *1238:C *1247:A1 0.000184712
32 *1238:C *1304:A1 8.8266e-05
33 *200:18 *1236:D 1.88904e-05
34 *200:18 *1421:A 3.92416e-05
35 *200:40 *1247:A1 0.000119088
36 *200:50 *1230:A1 5.88334e-05
37 *200:50 *1239:C 0
38 *200:50 *201:50 0.00038133
39 *200:72 *1239:C 8.65961e-05
40 *200:72 *1247:A1 0.000138808
41 *200:87 *1227:B2 0.000158066
42 *200:87 *1239:C 0.000153217
43 *200:87 *1247:A1 0.000161829
44 *200:87 *1247:B2 8.09021e-06
45 *200:87 *1303:A1 0
46 *200:87 *201:82 9.97627e-05
47 *200:87 *201:92 1.71013e-05
48 *200:87 *259:8 0
49 *200:95 *1229:D 0.000160641
50 *1222:B *1222:C 0.000180398
51 *1225:C *1233:B_N 0.000528272
52 *1229:C *1233:B_N 3.31103e-05
53 *1229:C *200:95 1.47347e-05
54 *1238:B *1238:C 0.000349592
55 *1247:C1 *200:87 3.68784e-05
56 *1247:C1 *200:95 4.86165e-05
57 *1251:C1 *200:95 9.14354e-05
58 *1252:B1 *1233:B_N 4.80383e-05
59 *1292:B *1222:C 1.47347e-05
60 *1303:A0 *200:50 0.000344076
61 *1304:A0 *1238:C 4.82863e-05
62 *1380:CLK *200:18 1.7635e-05
63 *1445:A *200:95 0.000233004
64 *1447:A *200:18 0.000420557
65 *1454:A *1233:B_N 2.18128e-05
66 *1456:A *1222:C 0.000197264
67 *1469:A *1233:B_N 5.83121e-06
68 *93:14 *1222:C 5.05521e-05
69 *109:14 *1238:C 0.000115762
70 *147:10 *1222:C 1.34361e-05
71 *149:24 *200:50 0.00015635
72 *173:63 *1238:C 0.000161529
73 *197:49 *1222:C 4.35348e-05
74 *197:49 *200:50 0.000119762
75 *197:74 *1222:C 2.75229e-05
76 *197:78 *200:87 0.000175682
77 *197:120 *1233:B_N 9.80943e-06
78 *198:23 *1233:B_N 6.76985e-05
79 *198:38 *1233:B_N 1.07797e-05
80 *199:19 *1233:B_N 0.000163907
81 *199:27 *1233:B_N 1.88656e-05
82 *199:49 *1233:B_N 9.29751e-06
*RES
1 *1447:X *200:4 1.6 
2 *200:4 *200:18 6.39893 
3 *200:18 *1238:C 8.035 
4 *200:18 *1236:B_N 1.6 
5 *200:4 *200:40 2.295 
6 *200:40 *200:50 11.98 
7 *200:50 *1228:B_N 1.6 
8 *200:50 *1222:C 10.715 
9 *200:40 *200:72 2.175 
10 *200:72 *1239:A_N 1.6 
11 *200:72 *200:87 11.17 
12 *200:87 *200:95 7.645 
13 *200:95 *1446:A 1.6 
14 *200:95 *1233:B_N 22.3761 
15 *200:87 *1224:C 1.6 
*END

*D_NET *201 0.0116054
*CONN
*I *1224:A_N I *D sky130_fd_sc_hd__and4bb_2
*I *1239:D I *D sky130_fd_sc_hd__and4b_2
*I *1220:A I *D sky130_fd_sc_hd__nor2_1
*I *1217:C I *D sky130_fd_sc_hd__and4b_2
*I *1218:A I *D sky130_fd_sc_hd__nor4b_1
*I *1211:A I *D sky130_fd_sc_hd__and4_1
*I *1222:D_N I *D sky130_fd_sc_hd__nor4b_1
*I *1228:C I *D sky130_fd_sc_hd__and4bb_2
*I *1236:A_N I *D sky130_fd_sc_hd__and4bb_2
*I *1238:D I *D sky130_fd_sc_hd__and4b_2
*I *1448:X O *D sky130_fd_sc_hd__clkbuf_2
*CAP
1 *1224:A_N 0
2 *1239:D 0
3 *1220:A 7.79992e-06
4 *1217:C 5.66715e-05
5 *1218:A 3.21925e-05
6 *1211:A 1.41866e-05
7 *1222:D_N 0.000136622
8 *1228:C 0
9 *1236:A_N 0.00023889
10 *1238:D 0.000416186
11 *1448:X 0
12 *201:122 0.000223749
13 *201:105 0.000286398
14 *201:92 0.000838038
15 *201:82 0.000830716
16 *201:78 0.000302883
17 *201:50 0.000247876
18 *201:46 0.000498119
19 *201:25 0.000818124
20 *201:4 0.000809647
21 *1222:D_N *1222:A 5.95624e-05
22 *1222:D_N *209:37 9.50342e-06
23 *1236:A_N *1247:A1 1.17309e-05
24 *1236:A_N *1421:A 6.88421e-05
25 *1238:D *209:25 0.000557968
26 *1238:D *209:33 5.4155e-06
27 *201:25 *209:25 3.63661e-05
28 *201:25 *209:33 0.000324714
29 *201:46 *209:33 0.000124848
30 *201:50 *1239:C 7.21296e-06
31 *201:50 *209:37 0.000381337
32 *201:78 *209:33 4.82919e-05
33 *201:78 *209:65 7.49327e-05
34 *201:78 *209:82 0.000157343
35 *201:78 *209:98 3.26889e-05
36 *201:82 *1239:C 0
37 *201:82 *259:8 0
38 *201:92 *1239:C 0
39 *201:92 *1247:B2 0
40 *1217:A_N *1218:A 1.46828e-05
41 *1217:A_N *201:122 0
42 *1218:C *1218:A 8.65905e-05
43 *1218:C *201:122 4.82919e-05
44 *1221:A_N *1220:A 3.75126e-05
45 *1221:A_N *201:122 0.000195865
46 *1221:C *201:122 2.05641e-05
47 *1222:B *1222:D_N 0
48 *1225:C *201:122 2.16917e-05
49 *1226:C *1217:C 1.71207e-05
50 *1233:B_N *1218:A 0.000160635
51 *1233:B_N *201:92 8.53113e-06
52 *1233:B_N *201:105 0.000173904
53 *1233:B_N *201:122 3.57349e-05
54 *1239:B *201:82 3.57846e-05
55 *1239:B *201:92 5.53249e-06
56 *1251:C1 *201:92 0.000107112
57 *1258:B1 *1217:C 0.000180675
58 *1269:A2 *201:122 5.53249e-06
59 *1270:C1 *1220:A 4.77757e-05
60 *1270:C1 *201:122 0.0001947
61 *1273:A2 *201:92 0.000535991
62 *1273:B1 *201:92 0
63 *1381:RESET_B *1238:D 0
64 *1427:A *201:92 2.88519e-05
65 *1427:A *201:105 6.35952e-05
66 *1427:A *201:122 0
67 *1447:A *1236:A_N 6.53239e-05
68 *92:10 *1217:C 0.000139238
69 *93:14 *1222:D_N 2.5415e-05
70 *106:12 *201:92 1.61831e-05
71 *106:35 *201:92 0.000149418
72 *149:24 *1222:D_N 0.000188164
73 *149:24 *201:50 1.25877e-05
74 *197:105 *201:92 0.000471308
75 *197:120 *1218:A 2.75145e-05
76 *198:19 *1211:A 8.65905e-05
77 *198:38 *201:105 4.24292e-06
78 *198:38 *201:122 5.16418e-05
79 *198:49 *1217:C 4.43871e-06
80 *199:49 *1211:A 8.65905e-05
81 *199:53 *201:122 3.66286e-05
82 *199:80 *201:122 5.64123e-05
83 *200:50 *201:50 0.00038133
84 *200:87 *201:82 9.97627e-05
85 *200:87 *201:92 1.71013e-05
*RES
1 *1448:X *201:4 1.6 
2 *201:4 *1238:D 12.905 
3 *201:4 *201:25 4.935 
4 *201:25 *1236:A_N 9.26375 
5 *201:25 *201:46 2.535 
6 *201:46 *201:50 6.695 
7 *201:50 *1228:C 3.6 
8 *201:50 *1222:D_N 6.945 
9 *201:46 *201:78 3.915 
10 *201:78 *201:82 4.145 
11 *201:82 *201:92 20.56 
12 *201:92 *1211:A 4.395 
13 *201:92 *201:105 4.4 
14 *201:105 *1218:A 3.085 
15 *201:105 *201:122 8.77 
16 *201:122 *1217:C 7.745 
17 *201:122 *1220:A 2.05 
18 *201:82 *1239:D 3.6 
19 *201:78 *1224:A_N 1.6 
*END

*D_NET *202 0.00618809
*CONN
*I *1229:D I *D sky130_fd_sc_hd__and4bb_1
*I *1225:A I *D sky130_fd_sc_hd__nor4_1
*I *1226:A I *D sky130_fd_sc_hd__or4_2
*I *1233:D I *D sky130_fd_sc_hd__and4bb_2
*I *1235:A_N I *D sky130_fd_sc_hd__and4b_2
*I *1449:X O *D sky130_fd_sc_hd__buf_1
*CAP
1 *1229:D 0.000235238
2 *1225:A 0
3 *1226:A 0.000450559
4 *1233:D 1.35105e-05
5 *1235:A_N 0
6 *1449:X 0.000193284
7 *202:25 0.000625434
8 *202:16 0.000312775
9 *202:10 0.000219476
10 *202:8 0.000496587
11 *1226:A *1220:B 0
12 *1226:A *1226:B 0.000311326
13 *1226:A *210:52 0.000170539
14 *202:10 *209:98 3.84331e-05
15 *202:16 *1235:B 2.85364e-05
16 *202:16 *209:98 1.71013e-05
17 *202:16 *210:33 8.30109e-05
18 *202:16 *210:52 0.000155497
19 *202:25 *210:52 0.000669885
20 *1227:A2 *202:16 1.91597e-05
21 *1233:B_N *1229:D 0.000187281
22 *1233:B_N *202:8 2.92496e-05
23 *1233:B_N *202:10 0.000104132
24 *1254:A2 *1226:A 2.24336e-05
25 *1296:S *202:8 0
26 *1375:D *202:8 0.000116158
27 *1438:A *1226:A 0
28 *95:33 *202:16 0
29 *95:42 *202:8 0
30 *95:42 *202:10 0
31 *102:29 *1226:A 1.90662e-05
32 *103:8 *1226:A 0.000158502
33 *104:12 *1226:A 0.000275917
34 *169:12 *1226:A 0
35 *182:10 *202:8 3.24046e-05
36 *182:19 *202:8 3.18137e-05
37 *190:10 *1226:A 0
38 *190:16 *1226:A 0
39 *198:12 *202:16 4.82863e-05
40 *198:19 *1233:D 4.99619e-05
41 *198:19 *202:16 0.000155497
42 *198:19 *202:25 0.000590659
43 *199:19 *202:8 3.76596e-05
44 *199:27 *202:10 1.80446e-05
45 *199:27 *202:16 2.34423e-05
46 *199:49 *1233:D 8.65905e-05
47 *199:49 *202:25 0
48 *200:95 *1229:D 0.000160641
*RES
1 *1449:X *202:8 7.785 
2 *202:8 *202:10 1.635 
3 *202:10 *202:16 5.72 
4 *202:16 *1235:A_N 1.6 
5 *202:16 *202:25 6.585 
6 *202:25 *1233:D 2.395 
7 *202:25 *1226:A 16.34 
8 *202:10 *1225:A 3.6 
9 *202:8 *1229:D 6.81 
*END

*D_NET *203 0.00144814
*CONN
*I *1443:A I *D sky130_fd_sc_hd__buf_2
*I *1463:X O *D sky130_fd_sc_hd__clkbuf_1
*CAP
1 *1443:A 0.000641223
2 *1463:X 0.000641223
3 *196:10 *1443:A 0.000165698
*RES
1 *1463:X *1443:A 12.305 
*END

*D_NET *204 0.0188282
*CONN
*I *1255:A1 I *D sky130_fd_sc_hd__a22o_1
*I *1254:B1_N I *D sky130_fd_sc_hd__o21ba_1
*I *1244:A1 I *D sky130_fd_sc_hd__a22o_1
*I *1287:A I *D sky130_fd_sc_hd__nand2_2
*I *1307:A I *D sky130_fd_sc_hd__nand2_1
*I *1302:A I *D sky130_fd_sc_hd__nand2_2
*I *1292:A I *D sky130_fd_sc_hd__nand2_2
*I *1297:A I *D sky130_fd_sc_hd__nand2_2
*I *1265:B1_N I *D sky130_fd_sc_hd__o21ba_1
*I *1243:B1_N I *D sky130_fd_sc_hd__o21ba_1
*I *1450:X O *D sky130_fd_sc_hd__clkbuf_4
*CAP
1 *1255:A1 0.000127792
2 *1254:B1_N 1.60636e-05
3 *1244:A1 0
4 *1287:A 0
5 *1307:A 8.04779e-05
6 *1302:A 0.00017661
7 *1292:A 0.00049266
8 *1297:A 0
9 *1265:B1_N 0
10 *1243:B1_N 0.000430249
11 *1450:X 0
12 *204:164 0.000583293
13 *204:105 0.000819763
14 *204:103 0.00116489
15 *204:93 0.00106072
16 *204:80 0.000536048
17 *204:63 0.00160334
18 *204:24 0.00169686
19 *204:20 0.000857841
20 *204:4 0.00122475
21 *1243:B1_N *1278:A1 0.000156392
22 *1254:B1_N *1254:A1 0
23 *1302:A *1421:A 1.8535e-05
24 *1307:A *1267:A1 9.5433e-05
25 *1307:A *250:10 5.16418e-05
26 *204:20 *1219:A1 0.00018305
27 *204:20 *267:10 0.00013521
28 *204:63 *1275:A1 7.06865e-05
29 *204:63 *1281:A1 1.1392e-05
30 *204:63 *205:35 0
31 *204:80 *1288:A1 0.000123225
32 *204:80 *247:12 1.0183e-05
33 *204:164 *1254:A1 0.000101929
34 *204:164 *1451:A 0
35 *204:164 *206:140 0
36 *1222:B *1292:A 4.36573e-06
37 *1222:C *1292:A 3.09164e-05
38 *1223:A2 *204:80 0.000124895
39 *1242:A *204:20 0.00011852
40 *1242:B *204:63 4.82919e-05
41 *1242:B *204:80 0.000128483
42 *1242:C *204:20 0.000213534
43 *1243:A2 *204:63 0.000879047
44 *1244:B1 *204:20 0.000139245
45 *1244:B2 *1243:B1_N 8.53113e-06
46 *1244:B2 *204:20 3.76034e-05
47 *1254:A2 *1254:B1_N 4.00541e-06
48 *1255:B1 *1255:A1 5.78185e-05
49 *1255:B1 *204:164 1.6408e-05
50 *1255:B2 *1255:A1 4.99619e-05
51 *1257:B1 *204:80 0
52 *1266:B1 *204:63 0.000134516
53 *1266:B2 *204:63 7.06865e-05
54 *1267:B1 *204:105 0.000192368
55 *1268:C1 *1307:A 4.32126e-05
56 *1275:B1 *204:63 1.91597e-05
57 *1275:B1 *204:80 0.000616051
58 *1277:B *204:20 9.37731e-05
59 *1278:A0 *1243:B1_N 0.000101809
60 *1278:S *1243:B1_N 0.000138743
61 *1279:A0 *204:164 0.00022304
62 *1279:S *204:20 0.000193806
63 *1279:S *204:164 0.000113237
64 *1287:B *204:103 1.92979e-05
65 *1290:S *204:103 8.41703e-06
66 *1298:A0 *204:80 2.96553e-05
67 *1302:B *1302:A 9.09788e-06
68 *1306:S *1302:A 2.09283e-05
69 *1306:S *204:105 0
70 *1356:CLK *204:20 0
71 *1361:D *204:164 8.53113e-06
72 *1385:D *1292:A 3.68682e-05
73 *1386:CLK *1307:A 0
74 *1386:CLK *204:105 0
75 *1391:RESET_B *204:20 1.83847e-05
76 *1431:A *204:93 8.34933e-05
77 *1471:A *1243:B1_N 0
78 *92:42 *204:80 0.000382764
79 *92:42 *204:93 4.07518e-05
80 *93:14 *1292:A 0
81 *93:29 *1292:A 0.000665545
82 *93:29 *1307:A 1.79483e-05
83 *93:29 *204:105 0.000409373
84 *95:46 *204:103 0
85 *97:35 *204:63 4.43871e-06
86 *97:52 *204:63 0
87 *97:52 *204:80 1.37328e-05
88 *144:29 *204:20 0.000498373
89 *144:40 *204:20 7.81859e-05
90 *144:40 *204:24 0
91 *144:40 *204:63 0
92 *147:10 *1292:A 0.000157588
93 *149:8 *1302:A 4.77719e-05
94 *150:14 *1307:A 0
95 *168:25 *204:80 4.35348e-05
96 *172:35 *1302:A 0.000349696
97 *174:61 *204:164 0.000179015
98 *176:62 *204:80 4.7043e-05
99 *184:48 *204:20 2.67184e-05
100 *185:25 *1243:B1_N 0
101 *185:25 *204:24 0
102 *185:25 *204:63 0
*RES
1 *1450:X *204:4 1.6 
2 *204:4 *204:20 20.755 
3 *204:20 *204:24 3.125 
4 *204:24 *1243:B1_N 13.945 
5 *204:24 *204:63 26.62 
6 *204:63 *1265:B1_N 1.6 
7 *204:63 *204:80 15.685 
8 *204:80 *1297:A 1.6 
9 *204:80 *204:93 2.655 
10 *204:93 *204:103 4.72717 
11 *204:103 *204:105 4.8225 
12 *204:105 *1292:A 14.205 
13 *204:105 *1302:A 11.425 
14 *204:103 *1307:A 5.3625 
15 *204:93 *1287:A 1.6 
16 *204:20 *1244:A1 1.6 
17 *204:4 *204:164 12.19 
18 *204:164 *1254:B1_N 1.96 
19 *204:164 *1255:A1 4.135 
*END

*D_NET *205 0.00698375
*CONN
*I *1282:A I *D sky130_fd_sc_hd__nand2_2
*I *1312:A I *D sky130_fd_sc_hd__nand2_1
*I *1276:S I *D sky130_fd_sc_hd__mux2_1
*I *1266:A1 I *D sky130_fd_sc_hd__a22o_1
*I *1277:A I *D sky130_fd_sc_hd__nand2_2
*I *1451:X O *D sky130_fd_sc_hd__clkbuf_2
*CAP
1 *1282:A 0.000382925
2 *1312:A 2.13547e-05
3 *1276:S 1.77753e-05
4 *1266:A1 0.000226148
5 *1277:A 0
6 *1451:X 7.24316e-05
7 *205:35 0.00118651
8 *205:25 0.00128709
9 *205:19 0.000972273
10 *205:6 0.000338624
11 *205:35 *1265:A1 0
12 *205:35 *1275:A1 7.58408e-05
13 *205:35 *1280:A1 0.000226841
14 *205:35 *1281:A0 0
15 *205:35 *1285:A1 9.14049e-05
16 *205:35 *1315:A1 0
17 *205:35 *218:8 3.47668e-05
18 *1242:C *205:19 5.93674e-05
19 *1266:A2 *1266:A1 7.73913e-05
20 *1266:A2 *1276:S 0
21 *1266:B2 *205:35 0
22 *1275:B2 *205:35 0
23 *1276:A0 *205:35 0.000134531
24 *1276:A1 *205:35 0.000124895
25 *1277:B *205:6 4.66108e-05
26 *1277:B *205:19 3.12176e-05
27 *1315:A0 *205:35 1.22762e-05
28 *1366:D *205:35 1.26626e-05
29 *1366:RESET_B *205:35 0.000102133
30 *1388:CLK *205:25 0.0001613
31 *1388:D *1282:A 0.000120655
32 *1388:D *205:19 0
33 *1390:D *205:35 8.65961e-05
34 *88:27 *1312:A 0
35 *88:27 *205:35 0.000316254
36 *88:36 *205:35 4.66108e-05
37 *97:35 *205:35 0
38 *97:52 *205:35 4.9968e-05
39 *151:32 *205:25 2.19562e-06
40 *151:32 *205:35 8.73389e-06
41 *169:12 *205:35 0
42 *169:33 *205:35 0
43 *171:125 *1282:A 0
44 *171:125 *205:19 0
45 *176:12 *1282:A 0.000267123
46 *176:20 *1282:A 0.000175805
47 *194:32 *1282:A 0.000138016
48 *194:32 *205:19 7.5416e-05
49 *204:63 *205:35 0
*RES
1 *1451:X *205:6 2.74 
2 *205:6 *1277:A 1.6 
3 *205:6 *205:19 6.845 
4 *205:19 *205:25 6.26 
5 *205:25 *205:35 22.915 
6 *205:35 *1266:A1 4.75 
7 *205:35 *1276:S 1.96 
8 *205:25 *1312:A 1.96 
9 *205:19 *1282:A 11.055 
*END

*D_NET *206 0.0164086
*CONN
*I *1451:A I *D sky130_fd_sc_hd__clkbuf_2
*I *1450:A I *D sky130_fd_sc_hd__clkbuf_4
*I *1317:A I *D sky130_fd_sc_hd__nand2_2
*I *1337:A I *D sky130_fd_sc_hd__nand2_2
*I *1327:A I *D sky130_fd_sc_hd__nand2_1
*I *1212:A I *D sky130_fd_sc_hd__nand2_1
*I *1332:A I *D sky130_fd_sc_hd__nand2_2
*I *1342:A I *D sky130_fd_sc_hd__nand2_1
*I *1322:A I *D sky130_fd_sc_hd__nand2_2
*I *1347:A I *D sky130_fd_sc_hd__nand2_1
*I *1452:X O *D sky130_fd_sc_hd__clkbuf_4
*CAP
1 *1451:A 0.000108271
2 *1450:A 0
3 *1317:A 2.51931e-05
4 *1337:A 2.75727e-05
5 *1327:A 0
6 *1212:A 0.000185204
7 *1332:A 0
8 *1342:A 0.00016418
9 *1322:A 0.000306061
10 *1347:A 3.13835e-05
11 *1452:X 0
12 *206:140 0.000693751
13 *206:129 0.000828021
14 *206:115 0.000305154
15 *206:109 0.00049493
16 *206:44 0.000649982
17 *206:36 0.000503299
18 *206:34 0.000411248
19 *206:28 0.0020047
20 *206:4 0.00143483
21 *1212:A *1269:B2 0.000181376
22 *1322:A *214:18 4.00541e-06
23 *1342:A *207:18 0.000319486
24 *206:28 *1248:B2 0.000216196
25 *206:28 *1422:A 3.25834e-05
26 *206:34 *1269:B2 0.00040649
27 *206:44 *1348:A1 0.000292794
28 *206:115 *1234:B2 0.000134001
29 *206:115 *1425:A 0
30 *206:129 *1425:A 0
31 *206:140 *1425:A 0
32 *1212:B *1212:A 4.66108e-05
33 *1213:A0 *1212:A 0
34 *1213:S *1212:A 1.91597e-05
35 *1249:A2 *1317:A 4.66108e-05
36 *1249:B1 *206:129 0.000189046
37 *1250:C1 *206:28 0.000207947
38 *1252:A2 *206:115 0
39 *1252:A2 *206:129 6.23119e-05
40 *1252:D1 *206:140 0
41 *1261:A2 *1347:A 0.000159697
42 *1261:A2 *206:44 0.0001104
43 *1262:A2 *206:28 0.000122435
44 *1274:C1 *206:28 0
45 *1322:B *1322:A 3.38272e-05
46 *1333:S *1342:A 6.44256e-05
47 *1337:B *1337:A 2.96334e-05
48 *1337:B *206:115 1.61831e-05
49 *1338:S *206:115 8.83166e-05
50 *1339:S *206:28 0.000378513
51 *1348:A0 *1322:A 3.07322e-05
52 *1348:A0 *206:44 0.000183523
53 *1348:S *206:44 7.40446e-05
54 *1353:D *206:28 1.90762e-05
55 *1353:D *206:34 0
56 *1361:CLK *1451:A 2.49909e-05
57 *1361:D *1451:A 0
58 *1365:CLK *206:129 0.000183738
59 *1365:CLK *206:140 0.000324264
60 *1393:CLK *206:140 0.000358944
61 *1408:CLK *206:28 3.45679e-05
62 *1408:D *206:115 6.47516e-05
63 *1409:CLK *206:129 0.000183043
64 *1410:CLK *206:28 6.6925e-05
65 *1410:RESET_B *206:28 0.000273958
66 *1416:CLK *1322:A 0.000153139
67 *86:37 *206:28 0.000240249
68 *87:17 *1212:A 1.17409e-05
69 *104:12 *206:28 0.000137578
70 *107:26 *1322:A 6.89764e-06
71 *107:30 *1322:A 7.30085e-05
72 *110:10 *1342:A 8.7152e-06
73 *110:14 *1342:A 0.000226418
74 *111:34 *206:28 0.000116853
75 *153:12 *1322:A 0
76 *153:42 *1322:A 0
77 *154:6 *206:115 7.00889e-06
78 *155:6 *206:44 4.87465e-06
79 *155:10 *206:34 1.91597e-05
80 *155:10 *206:36 1.91597e-05
81 *155:10 *206:44 0.000118081
82 *155:44 *206:34 0.000257815
83 *156:16 *1337:A 4.99619e-05
84 *156:16 *206:115 4.82919e-05
85 *156:29 *206:28 0
86 *158:30 *1347:A 0.000157378
87 *158:30 *206:44 4.66108e-05
88 *171:36 *1322:A 0.000122797
89 *171:94 *206:28 0.000125014
90 *174:50 *206:140 0
91 *174:61 *206:140 0
92 *175:29 *206:115 2.12099e-05
93 *175:64 *206:28 0.000959328
94 *178:20 *1212:A 0
95 *178:20 *206:34 0
96 *194:47 *1451:A 0.000127373
97 *194:47 *206:140 5.16418e-05
98 *194:49 *206:140 0.00013994
99 *204:164 *1451:A 0
100 *204:164 *206:140 0
*RES
1 *1452:X *206:4 1.6 
2 *206:4 *206:28 38.635 
3 *206:28 *206:34 10.94 
4 *206:34 *206:36 0.45 
5 *206:36 *206:44 7.83 
6 *206:44 *1347:A 3.085 
7 *206:44 *1322:A 12.14 
8 *206:36 *1342:A 10.34 
9 *206:34 *1332:A 1.6 
10 *206:28 *1212:A 7.245 
11 *206:4 *206:109 2 
12 *206:109 *206:115 8.42 
13 *206:115 *1327:A 1.6 
14 *206:115 *1337:A 2.395 
15 *206:109 *206:129 6.48 
16 *206:129 *1317:A 4.05 
17 *206:129 *206:140 12.345 
18 *206:140 *1450:A 3.6 
19 *206:140 *1451:A 5.685 
*END

*D_NET *207 0.0225008
*CONN
*I *1336:A0 I *D sky130_fd_sc_hd__mux2_1
*I *1281:A0 I *D sky130_fd_sc_hd__mux2_1
*I *1286:A0 I *D sky130_fd_sc_hd__mux2_1
*I *1321:A0 I *D sky130_fd_sc_hd__mux2_1
*I *1341:A0 I *D sky130_fd_sc_hd__mux2_1
*I *1331:A0 I *D sky130_fd_sc_hd__mux2_1
*I *1216:A0 I *D sky130_fd_sc_hd__mux2_1
*I *1346:A0 I *D sky130_fd_sc_hd__mux2_1
*I *1351:A0 I *D sky130_fd_sc_hd__mux2_1
*I *1326:A0 I *D sky130_fd_sc_hd__mux2_1
*I *1453:X O *D sky130_fd_sc_hd__buf_2
*CAP
1 *1336:A0 0.000419128
2 *1281:A0 0.00112163
3 *1286:A0 0
4 *1321:A0 0
5 *1341:A0 3.38648e-05
6 *1331:A0 0.000506419
7 *1216:A0 2.93139e-05
8 *1346:A0 0
9 *1351:A0 0
10 *1326:A0 0.000247166
11 *1453:X 0
12 *207:117 0.00129988
13 *207:104 0.00034146
14 *207:78 0.000819327
15 *207:64 0.000813105
16 *207:51 0.000995157
17 *207:45 0.00138675
18 *207:18 0.00112088
19 *207:8 0.00111908
20 *207:4 0.000618007
21 *1216:A0 *1216:A1 8.65905e-05
22 *1281:A0 *1270:A1 8.09021e-06
23 *1281:A0 *1275:A1 0
24 *1281:A0 *1281:A1 8.65961e-05
25 *1281:A0 *1286:A1 4.99619e-05
26 *1326:A0 *1421:A 4.70326e-05
27 *1326:A0 *238:6 0.000195946
28 *1331:A0 *1271:A1 0.000152413
29 *1331:A0 *1331:A1 3.86529e-05
30 *1336:A0 *1336:A1 0
31 *1336:A0 *225:12 9.2741e-05
32 *207:18 *1272:B2 3.75126e-05
33 *207:18 *238:6 4.89295e-05
34 *207:51 *1263:A1 0.000174199
35 *207:51 *242:10 0
36 *207:64 *1216:A1 0.00015529
37 *207:64 *274:12 3.00381e-05
38 *207:78 *1341:A1 4.43871e-06
39 *1216:S *1216:A0 8.8266e-05
40 *1219:A2 *1281:A0 0.000354222
41 *1242:B *1281:A0 0
42 *1248:B1 *207:51 2.05571e-05
43 *1250:C1 *1281:A0 0
44 *1250:C1 *1341:A0 4.82919e-05
45 *1250:C1 *207:78 0.000145991
46 *1270:A2 *1281:A0 3.68705e-05
47 *1273:C1 *1216:A0 9.80032e-06
48 *1273:C1 *207:64 7.54262e-05
49 *1274:B1 *1281:A0 6.18754e-05
50 *1274:C1 *1331:A0 0
51 *1274:C1 *207:78 0.000159747
52 *1275:B2 *1281:A0 0.000288696
53 *1275:B2 *207:104 0
54 *1280:A0 *1281:A0 0.000126679
55 *1286:S *1281:A0 0.000118081
56 *1321:S *207:104 3.17398e-05
57 *1321:S *207:117 2.66935e-05
58 *1330:A0 *1336:A0 4.20983e-05
59 *1333:S *207:18 0
60 *1336:S *1336:A0 0.000259282
61 *1340:A0 *1331:A0 0.000155928
62 *1342:A *207:18 0.000319486
63 *1344:A0 *207:51 0
64 *1353:CLK *207:18 0.000347057
65 *1354:D *207:51 0
66 *1355:RESET_B *207:51 0.000304247
67 *1367:D *207:117 3.64998e-06
68 *1367:RESET_B *1281:A0 0.000243744
69 *1367:RESET_B *207:78 0
70 *1395:D *207:78 8.53113e-06
71 *1395:D *207:104 0.000109522
72 *1395:RESET_B *207:64 6.81599e-05
73 *1405:D *207:18 0.000241483
74 *1406:D *207:45 9.91257e-05
75 *1406:D *207:51 0.000139245
76 *1407:CLK *207:51 0
77 *1407:D *1336:A0 0
78 *1411:CLK *207:78 0.000185398
79 *1411:CLK *207:104 4.38051e-05
80 *1415:D *207:18 8.10455e-05
81 *1454:A *207:8 4.66108e-05
82 *88:42 *1281:A0 0.000776229
83 *102:29 *1281:A0 7.9205e-06
84 *102:29 *207:117 1.76876e-05
85 *103:8 *207:51 0
86 *104:12 *207:78 0
87 *106:35 *207:51 1.61696e-05
88 *106:47 *207:51 0.000137333
89 *110:10 *207:18 0.000121187
90 *111:34 *207:51 2.83547e-05
91 *156:29 *1331:A0 0.000110644
92 *156:29 *207:78 2.46007e-05
93 *160:14 *207:8 8.23457e-05
94 *171:40 *1336:A0 0.000131
95 *171:125 *1281:A0 0.00162679
96 *171:125 *1331:A0 0.000139245
97 *171:125 *207:78 6.52181e-05
98 *173:12 *207:18 0.000134339
99 *173:22 *1326:A0 0.000233736
100 *173:22 *207:18 0.000679921
101 *175:64 *207:78 0.000250132
102 *178:28 *1326:A0 0.000157379
103 *179:18 *207:51 0.000170484
104 *179:20 *207:51 0.000100162
105 *179:49 *207:51 0.000272645
106 *179:56 *207:51 0.0002627
107 *185:52 *1281:A0 0
108 *187:78 *207:18 0.000309729
109 *189:27 *207:45 3.45588e-05
110 *189:53 *1336:A0 1.20414e-05
111 *189:53 *207:8 0
112 *189:53 *207:45 1.68057e-05
113 *189:69 *1331:A0 9.46863e-05
114 *189:88 *1331:A0 0
115 *190:16 *207:64 9.66021e-05
116 *190:16 *207:104 0
117 *190:16 *207:117 0
118 *190:33 *207:64 1.91597e-05
119 *205:35 *1281:A0 0
*RES
1 *1453:X *207:4 1.6 
2 *207:4 *207:8 3.645 
3 *207:8 *207:18 24.205 
4 *207:18 *1326:A0 10.385 
5 *207:18 *1351:A0 1.6 
6 *207:8 *1346:A0 1.6 
7 *207:4 *207:45 4.59 
8 *207:45 *207:51 18.895 
9 *207:51 *1216:A0 2.74 
10 *207:51 *207:64 9.71 
11 *207:64 *207:78 12.13 
12 *207:78 *1331:A0 14.025 
13 *207:78 *1341:A0 4.05 
14 *207:64 *207:104 3.21 
15 *207:104 *1321:A0 3.6 
16 *207:104 *207:117 4.355 
17 *207:117 *1286:A0 1.6 
18 *207:117 *1281:A0 35.96 
19 *207:45 *1336:A0 13.835 
*END

*D_NET *208 0.0128827
*CONN
*I *1301:A0 I *D sky130_fd_sc_hd__mux2_1
*I *1311:A0 I *D sky130_fd_sc_hd__mux2_1
*I *1306:A0 I *D sky130_fd_sc_hd__mux2_1
*I *1291:A0 I *D sky130_fd_sc_hd__mux2_1
*I *1316:A0 I *D sky130_fd_sc_hd__mux2_1
*I *1296:A0 I *D sky130_fd_sc_hd__mux2_1
*I *1454:X O *D sky130_fd_sc_hd__dlymetal6s2s_1
*CAP
1 *1301:A0 0.000645078
2 *1311:A0 0
3 *1306:A0 0.000115945
4 *1291:A0 4.71565e-05
5 *1316:A0 0.000748369
6 *1296:A0 0.000422162
7 *1454:X 1.93533e-05
8 *208:68 0.000482995
9 *208:62 0.000781797
10 *208:54 0.00172643
11 *208:31 0.00155464
12 *208:8 0.000628335
13 *1291:A0 *1291:A1 4.66108e-05
14 *1296:A0 *1269:B2 0.000148465
15 *1301:A0 *1268:A1 0
16 *1301:A0 *1301:A1 0.000124895
17 *1306:A0 *262:6 0.000122801
18 *1316:A0 *1258:A1 3.4075e-05
19 *1316:A0 *1258:B2 6.03947e-06
20 *208:62 *1268:A1 2.42747e-05
21 *208:68 *1291:A1 0.000411252
22 *1241:D1 *1296:A0 0.000118973
23 *1251:A2 *208:8 2.49909e-05
24 *1253:B *208:8 2.49909e-05
25 *1258:A2 *1316:A0 6.20667e-05
26 *1258:B1 *1316:A0 1.83756e-05
27 *1258:C1 *1316:A0 3.35215e-05
28 *1259:C1 *1316:A0 0.000203178
29 *1268:A2 *208:62 0.00023029
30 *1268:B1 *208:62 0.000152328
31 *1269:C1 *1296:A0 8.65961e-05
32 *1289:S *1291:A0 2.49909e-05
33 *1289:S *1306:A0 0.00011379
34 *1289:S *208:68 5.83121e-06
35 *1295:A0 *1316:A0 2.05056e-05
36 *1295:S *1316:A0 0.000158072
37 *1295:S *208:31 0
38 *1296:S *1296:A0 0
39 *1296:S *208:31 0
40 *1307:B *208:62 0.000198934
41 *1307:B *208:68 0.000203461
42 *1316:S *1316:A0 4.99619e-05
43 *1368:CLK *1301:A0 0
44 *1368:CLK *208:54 0
45 *1368:RESET_B *208:54 0.000433982
46 *1376:CLK *1301:A0 3.99879e-05
47 *1376:D *1301:A0 7.35729e-05
48 *1378:D *208:54 9.71067e-05
49 *1391:D *1316:A0 0.000115779
50 *1437:A *1296:A0 0.000100471
51 *1454:A *1296:A0 0
52 *146:19 *1301:A0 8.53113e-06
53 *146:19 *208:54 4.9968e-05
54 *146:44 *1301:A0 6.21553e-05
55 *146:44 *208:62 9.27255e-06
56 *146:44 *208:68 0.000184591
57 *148:14 *208:54 0.000241927
58 *148:32 *1301:A0 0
59 *148:32 *208:54 3.68596e-05
60 *150:6 *208:68 1.61831e-05
61 *167:31 *1296:A0 0.000212726
62 *168:25 *208:54 0.000359877
63 *168:25 *208:62 8.49205e-05
64 *176:28 *208:54 6.53481e-05
65 *182:92 *208:31 0
66 *182:92 *208:54 0
67 *182:106 *208:54 0.000162318
68 *194:10 *208:54 7.89689e-05
69 *195:12 *1301:A0 0
70 *196:77 *1301:A0 0
71 *196:90 *1296:A0 7.30547e-05
72 *196:90 *208:31 0.000384378
73 *196:90 *208:54 0.000158297
74 *199:19 *1296:A0 1.08758e-05
*RES
1 *1454:X *208:8 4.05 
2 *208:8 *1296:A0 12.975 
3 *208:8 *208:31 4.44 
4 *208:31 *1316:A0 16.845 
5 *208:31 *208:54 19.15 
6 *208:54 *208:62 9.38 
7 *208:62 *208:68 7.125 
8 *208:68 *1291:A0 2.395 
9 *208:68 *1306:A0 8.12 
10 *208:62 *1311:A0 1.6 
11 *208:54 *1301:A0 14.235 
*END

*D_NET *209 0.0136036
*CONN
*I *1236:D I *D sky130_fd_sc_hd__and4bb_2
*I *1224:D I *D sky130_fd_sc_hd__and4bb_2
*I *1218:D_N I *D sky130_fd_sc_hd__nor4b_1
*I *1211:B I *D sky130_fd_sc_hd__and4_1
*I *1220:B I *D sky130_fd_sc_hd__nor2_1
*I *1217:D I *D sky130_fd_sc_hd__and4b_2
*I *1239:C I *D sky130_fd_sc_hd__and4b_2
*I *1222:A I *D sky130_fd_sc_hd__nor4b_1
*I *1228:D I *D sky130_fd_sc_hd__and4bb_2
*I *1238:A_N I *D sky130_fd_sc_hd__and4b_2
*I *1455:X O *D sky130_fd_sc_hd__clkbuf_2
*CAP
1 *1236:D 0.000180062
2 *1224:D 4.77613e-05
3 *1218:D_N 0
4 *1211:B 0.000147055
5 *1220:B 0.000138177
6 *1217:D 0
7 *1239:C 0.000322806
8 *1222:A 0.000257501
9 *1228:D 0
10 *1238:A_N 0
11 *1455:X 3.06251e-05
12 *209:126 0.00020214
13 *209:106 0.000528511
14 *209:98 0.00107772
15 *209:82 0.000767769
16 *209:65 0.000442785
17 *209:37 0.000428146
18 *209:33 0.000484906
19 *209:25 0.000831126
20 *209:6 0.000399697
21 *1220:B *1226:B 7.55391e-05
22 *1224:D *1227:B2 0.000232105
23 *1236:D *1247:A1 2.05056e-05
24 *1239:C *259:8 8.53113e-06
25 *209:37 *1303:A1 3.26735e-05
26 *209:37 *259:8 1.94723e-05
27 *209:82 *1227:B2 0.000278117
28 *209:98 *1227:B2 8.79719e-05
29 *209:98 *210:29 0.000271367
30 *209:106 *254:12 2.39856e-05
31 *1217:A_N *209:106 0.000115779
32 *1222:B *1222:A 1.65105e-05
33 *1222:B *209:37 1.94892e-05
34 *1222:D_N *1222:A 5.95624e-05
35 *1222:D_N *209:37 9.50342e-06
36 *1225:D *209:98 8.40269e-05
37 *1226:A *1220:B 0
38 *1226:C *1220:B 0.000183043
39 *1226:D *1220:B 7.40446e-05
40 *1226:D *209:106 8.41307e-05
41 *1227:A2 *209:98 3.84487e-05
42 *1230:C1 *209:37 0
43 *1233:B_N *209:98 7.99196e-05
44 *1233:B_N *209:126 7.79847e-05
45 *1238:B *209:25 5.83121e-06
46 *1238:C *1236:D 4.82919e-05
47 *1238:D *209:25 0.000557968
48 *1238:D *209:33 5.4155e-06
49 *1239:B *1239:C 0
50 *1269:B1 *1211:B 0.000238428
51 *1292:B *1222:A 7.06865e-05
52 *1380:CLK *1236:D 0.000103296
53 *1380:CLK *209:33 4.66108e-05
54 *1380:RESET_B *209:25 0.000305459
55 *1380:RESET_B *209:33 0.000188498
56 *1381:D *209:6 4.05674e-06
57 *1381:D *209:25 3.38041e-05
58 *1381:RESET_B *209:25 4.2463e-05
59 *1427:A *1211:B 0.000124261
60 *1435:A *209:25 8.21686e-05
61 *1437:A *209:106 0.000374947
62 *1454:A *209:106 0.000376614
63 *1456:A *1222:A 0.000101706
64 *1469:A *209:98 8.43862e-05
65 *88:12 *1220:B 8.53113e-06
66 *92:10 *1220:B 2.23407e-05
67 *93:14 *1222:A 4.82863e-05
68 *95:18 *1224:D 0.000119762
69 *95:18 *209:98 0.000119762
70 *95:33 *209:98 3.05373e-05
71 *95:42 *209:98 2.97561e-05
72 *96:8 *209:98 0
73 *99:55 *209:106 0.000306155
74 *167:10 *209:98 4.66742e-05
75 *167:10 *209:126 3.83194e-05
76 *173:63 *1236:D 0.000113124
77 *182:10 *209:106 6.71882e-05
78 *197:120 *209:126 8.23457e-05
79 *198:49 *1220:B 9.50342e-06
80 *199:93 *209:106 8.49205e-05
81 *200:18 *1236:D 1.88904e-05
82 *200:50 *1239:C 0
83 *200:72 *1239:C 8.65961e-05
84 *200:87 *1239:C 0.000153217
85 *201:25 *209:25 3.63661e-05
86 *201:25 *209:33 0.000324714
87 *201:46 *209:33 0.000124848
88 *201:50 *1239:C 7.21296e-06
89 *201:50 *209:37 0.000381337
90 *201:78 *209:33 4.82919e-05
91 *201:78 *209:65 7.49327e-05
92 *201:78 *209:82 0.000157343
93 *201:78 *209:98 3.26889e-05
94 *201:82 *1239:C 0
95 *201:92 *1239:C 0
96 *202:10 *209:98 3.84331e-05
97 *202:16 *209:98 1.71013e-05
*RES
1 *1455:X *209:6 2.05 
2 *209:6 *1238:A_N 1.6 
3 *209:6 *209:25 13.72 
4 *209:25 *209:33 7.485 
5 *209:33 *209:37 6.44 
6 *209:37 *1228:D 3.6 
7 *209:37 *1222:A 8.685 
8 *209:33 *209:65 0.795 
9 *209:65 *1239:C 10.43 
10 *209:65 *209:82 3.225 
11 *209:82 *209:98 15.64 
12 *209:98 *209:106 14.41 
13 *209:106 *1217:D 1.6 
14 *209:106 *1220:B 9.05 
15 *209:98 *209:126 1.485 
16 *209:126 *1211:B 8.96 
17 *209:126 *1218:D_N 1.6 
18 *209:82 *1224:D 3.775 
19 *209:25 *1236:D 9.05 
*END

*D_NET *210 0.00667254
*CONN
*I *1225:B I *D sky130_fd_sc_hd__nor4_1
*I *1226:B I *D sky130_fd_sc_hd__or4_2
*I *1233:A_N I *D sky130_fd_sc_hd__and4bb_2
*I *1235:B I *D sky130_fd_sc_hd__and4b_2
*I *1229:A_N I *D sky130_fd_sc_hd__and4bb_1
*I *1456:X O *D sky130_fd_sc_hd__buf_1
*CAP
1 *1225:B 0
2 *1226:B 0.000256041
3 *1233:A_N 0
4 *1235:B 8.3411e-05
5 *1229:A_N 4.90904e-05
6 *1456:X 0.000125959
7 *210:52 0.000665192
8 *210:33 0.000526412
9 *210:29 0.000584768
10 *210:10 0.000725967
11 *1235:B *1227:A1 0
12 *1220:B *1226:B 7.55391e-05
13 *1224:B_N *210:29 7.63883e-05
14 *1226:A *1226:B 0.000311326
15 *1226:A *210:52 0.000170539
16 *1227:A2 *210:29 7.47215e-05
17 *1227:A2 *210:52 0.000118081
18 *1229:C *210:29 5.22918e-05
19 *1230:C1 *210:29 1.88602e-05
20 *1232:C *1226:B 7.23533e-05
21 *1247:C1 *210:10 0.000268285
22 *1251:C1 *210:10 0.000140999
23 *1251:C1 *210:29 0.000114014
24 *1258:B1 *1226:B 0
25 *1273:B1 *1226:B 0
26 *1445:A *1229:A_N 4.66826e-05
27 *1445:A *210:29 8.25606e-05
28 *86:6 *210:52 0.000224698
29 *95:42 *210:29 0
30 *96:8 *210:29 8.40213e-05
31 *100:8 *210:29 4.43871e-06
32 *102:10 *1226:B 0
33 *102:29 *1226:B 5.07419e-05
34 *102:29 *210:52 4.88572e-05
35 *103:8 *1226:B 0.000135422
36 *198:49 *1226:B 1.95461e-05
37 *199:27 *1235:B 0.00011998
38 *199:27 *210:33 9.0444e-05
39 *199:34 *1235:B 4.66108e-05
40 *202:16 *1235:B 2.85364e-05
41 *202:16 *210:33 8.30109e-05
42 *202:16 *210:52 0.000155497
43 *202:25 *210:52 0.000669885
44 *209:98 *210:29 0.000271367
*RES
1 *1456:X *210:10 8.765 
2 *210:10 *1229:A_N 2.395 
3 *210:10 *210:29 12.82 
4 *210:29 *210:33 3.125 
5 *210:33 *1235:B 5.175 
6 *210:33 *210:52 11.795 
7 *210:52 *1233:A_N 1.6 
8 *210:52 *1226:B 12.455 
9 *210:29 *1225:B 1.6 
*END

*D_NET *211 0.00110236
*CONN
*I *1434:A I *D sky130_fd_sc_hd__buf_2
*I *1464:X O *D sky130_fd_sc_hd__clkbuf_1
*CAP
1 *1434:A 0.00029852
2 *1464:X 0.00029852
3 *1434:A *212:8 0.000253946
4 *1465:A *1434:A 8.56869e-05
5 *186:38 *1434:A 0.00016569
*RES
1 *1464:X *1434:A 14.52 
*END

*D_NET *212 0.00780856
*CONN
*I *1425:A I *D sky130_fd_sc_hd__dlymetal6s2s_1
*I *1424:A I *D sky130_fd_sc_hd__buf_2
*I *1465:X O *D sky130_fd_sc_hd__buf_1
*CAP
1 *1425:A 0.0011863
2 *1424:A 9.53363e-05
3 *1465:X 0.000266495
4 *212:8 0.00154813
5 *1425:A *1254:A1 0.000423461
6 *1425:A *1339:A1 4.21447e-06
7 *1249:B1 *1425:A 0.000207777
8 *1278:A0 *1425:A 0.000293733
9 *1329:A0 *1425:A 0
10 *1361:D *1425:A 4.65643e-05
11 *1365:D *1425:A 0.00011852
12 *1365:RESET_B *1425:A 0.000294877
13 *1400:RESET_B *1424:A 2.86623e-05
14 *1400:RESET_B *1425:A 1.52184e-05
15 *1408:RESET_B *1425:A 0.000118446
16 *1409:D *1425:A 0.00011852
17 *1409:RESET_B *1425:A 0.000139245
18 *1434:A *212:8 0.000253946
19 *145:20 *1425:A 0.00117754
20 *154:19 *1424:A 0
21 *154:19 *1425:A 0
22 *174:50 *1425:A 0.000268733
23 *174:61 *1425:A 0.000169534
24 *175:29 *1425:A 0.000247663
25 *175:42 *1425:A 0
26 *176:6 *1425:A 3.66286e-05
27 *176:12 *1425:A 8.40269e-05
28 *179:8 *1424:A 0.000203178
29 *179:85 *1424:A 9.80032e-06
30 *179:85 *212:8 8.49205e-05
31 *179:97 *1425:A 0.000153242
32 *186:8 *1424:A 0.000163204
33 *186:8 *212:8 2.96334e-05
34 *186:38 *212:8 2.10134e-05
35 *194:45 *1425:A 0
36 *194:47 *1425:A 0
37 *206:115 *1425:A 0
38 *206:129 *1425:A 0
39 *206:140 *1425:A 0
*RES
1 *1465:X *212:8 8.88 
2 *212:8 *1424:A 6.39 
3 *212:8 *1425:A 38.085 
*END

*D_NET *213 0.00709679
*CONN
*I *1423:A I *D sky130_fd_sc_hd__buf_1
*I *1422:A I *D sky130_fd_sc_hd__clkbuf_2
*I *1466:X O *D sky130_fd_sc_hd__buf_1
*CAP
1 *1423:A 0.00023331
2 *1422:A 0.00183802
3 *1466:X 0.000167297
4 *213:6 0.00223863
5 *1422:A *1234:A1 3.76454e-05
6 *1422:A *229:10 4.82919e-05
7 *213:6 *1234:A1 7.27298e-06
8 *213:6 *227:6 4.40325e-06
9 *1215:A0 *1422:A 8.34281e-06
10 *1215:S *1422:A 0.000355022
11 *1338:A0 *1423:A 0
12 *1354:D *1422:A 8.49205e-05
13 *1392:RESET_B *1423:A 4.82863e-05
14 *1408:CLK *1422:A 0.000232661
15 *1410:CLK *1422:A 9.66021e-05
16 *1452:A *1423:A 9.05377e-05
17 *171:94 *1422:A 0.000726722
18 *173:12 *1422:A 5.4155e-06
19 *174:12 *1423:A 7.96996e-05
20 *174:44 *1423:A 2.45182e-05
21 *175:29 *1422:A 0.000151583
22 *175:42 *1423:A 0
23 *186:38 *1423:A 0.000563613
24 *186:49 *1423:A 2.14129e-05
25 *206:28 *1422:A 3.25834e-05
*RES
1 *1466:X *213:6 3.43 
2 *213:6 *1422:A 27.625 
3 *213:6 *1423:A 12.785 
*END

*D_NET *214 0.00868065
*CONN
*I *1421:A I *D sky130_fd_sc_hd__dlymetal6s2s_1
*I *1420:A I *D sky130_fd_sc_hd__buf_2
*I *1467:X O *D sky130_fd_sc_hd__buf_1
*CAP
1 *1421:A 0.00179957
2 *1420:A 9.85482e-05
3 *1467:X 0.000564297
4 *214:18 0.00246242
5 *1421:A *1245:A1 0.000268973
6 *1421:A *1247:A1 6.15576e-06
7 *1421:A *1256:A1 4.41506e-05
8 *1421:A *1289:A1 0.000181376
9 *1236:A_N *1421:A 6.88421e-05
10 *1236:C *1421:A 0
11 *1245:B1 *1421:A 0.000287337
12 *1262:C1 *1421:A 1.27225e-05
13 *1289:S *1421:A 0.000335865
14 *1293:A0 *1421:A 7.24982e-05
15 *1302:A *1421:A 1.8535e-05
16 *1303:A0 *1421:A 0
17 *1304:S *1421:A 0.000352629
18 *1322:A *214:18 4.00541e-06
19 *1322:B *214:18 0
20 *1323:A0 *214:18 8.40388e-05
21 *1323:S *214:18 6.36578e-05
22 *1324:S *1421:A 0.000332744
23 *1326:A0 *1421:A 4.70326e-05
24 *1380:CLK *1421:A 0
25 *1398:RESET_B *1421:A 0
26 *1399:D *1421:A 0.000116853
27 *1447:A *1421:A 8.41015e-06
28 *107:10 *1421:A 6.02202e-05
29 *107:18 *1421:A 0.00010436
30 *109:41 *1421:A 0.000139269
31 *149:24 *1421:A 1.67235e-05
32 *153:12 *1421:A 3.09233e-05
33 *153:12 *214:18 0.000169058
34 *153:42 *1421:A 0.0007028
35 *171:36 *1420:A 0.000136853
36 *171:36 *214:18 1.90662e-05
37 *173:101 *1421:A 3.83702e-06
38 *183:16 *1421:A 2.76356e-05
39 *200:18 *1421:A 3.92416e-05
*RES
1 *1467:X *214:18 14.9 
2 *214:18 *1420:A 3.775 
3 *214:18 *1421:A 44.33 
*END

*D_NET *215 0.00113146
*CONN
*I *1243:A1 I *D sky130_fd_sc_hd__o21ba_1
*I *1278:A1 I *D sky130_fd_sc_hd__mux2_1
*I *1360:Q O *D sky130_fd_sc_hd__dfrtp_1
*CAP
1 *1243:A1 0.000110903
2 *1278:A1 7.45234e-05
3 *1360:Q 9.29323e-05
4 *215:10 0.000278359
5 *1243:A2 *1243:A1 0.00010258
6 *1243:A2 *1278:A1 0.000217523
7 *1243:B1_N *1278:A1 0.000156392
8 *1278:A0 *1278:A1 4.82863e-05
9 *1278:S *1278:A1 4.99619e-05
10 *185:25 *215:10 0
*RES
1 *1360:Q *215:10 6.98 
2 *215:10 *1278:A1 4.585 
3 *215:10 *1243:A1 4.165 
*END

*D_NET *216 0.00263558
*CONN
*I *1279:A1 I *D sky130_fd_sc_hd__mux2_1
*I *1254:A1 I *D sky130_fd_sc_hd__o21ba_1
*I *1361:Q O *D sky130_fd_sc_hd__dfrtp_1
*CAP
1 *1279:A1 0
2 *1254:A1 0.000302288
3 *1361:Q 0.00035802
4 *216:14 0.000660308
5 *1253:A *1254:A1 0
6 *1254:A2 *1254:A1 5.20897e-05
7 *1254:B1_N *1254:A1 0
8 *1255:B1 *1254:A1 1.19928e-05
9 *1279:A0 *1254:A1 0.000229897
10 *1279:S *1254:A1 0.000153816
11 *1279:S *216:14 3.74161e-05
12 *1361:D *1254:A1 9.50342e-06
13 *1425:A *1254:A1 0.000423461
14 *174:61 *1254:A1 0.000158297
15 *184:42 *216:14 6.42013e-05
16 *184:48 *216:14 7.23602e-05
17 *204:164 *1254:A1 0.000101929
*RES
1 *1361:Q *216:14 10.13 
2 *216:14 *1254:A1 13.535 
3 *216:14 *1279:A1 1.6 
*END

*D_NET *217 0.00190518
*CONN
*I *1280:A1 I *D sky130_fd_sc_hd__mux2_1
*I *1265:A1 I *D sky130_fd_sc_hd__o21ba_1
*I *1362:Q O *D sky130_fd_sc_hd__dfrtp_1
*CAP
1 *1280:A1 0.000225123
2 *1265:A1 0.000212431
3 *1362:Q 0
4 *217:4 0.000437554
5 *1280:A1 *1285:A1 3.64998e-06
6 *1275:B2 *1280:A1 0
7 *1362:D *1280:A1 0
8 *1366:CLK *1280:A1 0.000236355
9 *1366:RESET_B *1265:A1 0.00015896
10 *97:35 *1265:A1 6.47594e-05
11 *169:33 *1280:A1 9.14155e-05
12 *186:76 *1265:A1 1.17309e-05
13 *186:76 *1280:A1 0.000236355
14 *205:35 *1265:A1 0
15 *205:35 *1280:A1 0.000226841
*RES
1 *1362:Q *217:4 1.6 
2 *217:4 *1265:A1 8.81 
3 *217:4 *1280:A1 11.81 
*END

*D_NET *218 0.00129302
*CONN
*I *1281:A1 I *D sky130_fd_sc_hd__mux2_1
*I *1275:A1 I *D sky130_fd_sc_hd__o22a_1
*I *1363:Q O *D sky130_fd_sc_hd__dfrtp_1
*CAP
1 *1281:A1 0.000177031
2 *1275:A1 0.000173449
3 *1363:Q 5.48009e-05
4 *218:8 0.000405281
5 *1281:A0 *1275:A1 0
6 *1281:A0 *1281:A1 8.65961e-05
7 *1363:D *1281:A1 0.000203178
8 *204:63 *1275:A1 7.06865e-05
9 *204:63 *1281:A1 1.1392e-05
10 *205:35 *1275:A1 7.58408e-05
11 *205:35 *218:8 3.47668e-05
*RES
1 *1363:Q *218:8 4.725 
2 *218:8 *1275:A1 6.81 
3 *218:8 *1281:A1 7.155 
*END

*D_NET *219 0.00263802
*CONN
*I *1234:B2 I *D sky130_fd_sc_hd__a22o_1
*I *1328:A1 I *D sky130_fd_sc_hd__mux2_1
*I *1400:Q O *D sky130_fd_sc_hd__dfrtp_1
*CAP
1 *1234:B2 0.000282496
2 *1328:A1 4.44806e-05
3 *1400:Q 0.000194472
4 *219:8 0.000521449
5 *1234:B2 *1234:A1 2.75229e-05
6 *1252:A2 *1234:B2 9.50342e-06
7 *1328:A0 *1234:B2 0.00024514
8 *1328:A0 *1328:A1 0.00016163
9 *1330:S *1328:A1 9.50342e-06
10 *1331:S *219:8 2.49909e-05
11 *1400:RESET_B *219:8 7.25921e-05
12 *1408:CLK *1234:B2 4.82919e-05
13 *104:44 *1234:B2 0.000375626
14 *154:19 *1234:B2 0.000335858
15 *154:19 *1328:A1 4.38051e-05
16 *154:21 *1328:A1 0.000106655
17 *175:29 *1234:B2 0
18 *189:88 *1234:B2 0
19 *206:115 *1234:B2 0.000134001
*RES
1 *1400:Q *219:8 6.81 
2 *219:8 *1328:A1 5.49 
3 *219:8 *1234:B2 12.57 
*END

*D_NET *220 0.00443129
*CONN
*I *1252:A1 I *D sky130_fd_sc_hd__a2111o_1
*I *1329:A1 I *D sky130_fd_sc_hd__mux2_1
*I *1401:Q O *D sky130_fd_sc_hd__dfrtp_1
*CAP
1 *1252:A1 0.000474793
2 *1329:A1 6.21386e-05
3 *1401:Q 0.000541957
4 *220:8 0.00107889
5 *1252:A1 *1241:A1 0.000252296
6 *1252:A1 *1318:A1 7.23533e-05
7 *1241:B1 *1252:A1 8.97836e-05
8 *1241:D1 *1252:A1 0
9 *1242:C *1252:A1 3.86607e-05
10 *1252:A2 *1252:A1 0.00010322
11 *1286:S *1252:A1 0.000192125
12 *1318:S *1252:A1 0.00033517
13 *1337:B *1252:A1 0.000242772
14 *1337:B *1329:A1 7.23602e-05
15 *1338:A0 *220:8 3.00381e-05
16 *1338:S *220:8 0.000110007
17 *1401:D *1252:A1 3.09233e-05
18 *1401:D *1329:A1 7.06865e-05
19 *103:45 *1252:A1 0.000225175
20 *104:44 *1252:A1 0.000121868
21 *152:25 *1252:A1 0.00015046
22 *156:16 *1329:A1 4.66108e-05
23 *175:64 *1252:A1 8.89993e-05
*RES
1 *1401:Q *220:8 9.57 
2 *220:8 *1329:A1 4.92 
3 *220:8 *1252:A1 17.775 
*END

*D_NET *221 0.00335063
*CONN
*I *1330:A1 I *D sky130_fd_sc_hd__mux2_1
*I *1260:A1 I *D sky130_fd_sc_hd__a22o_1
*I *1402:Q O *D sky130_fd_sc_hd__dfrtp_1
*CAP
1 *1330:A1 0.000233091
2 *1260:A1 0.000600705
3 *1402:Q 0
4 *221:4 0.000833796
5 *1260:A1 *1271:B2 7.24779e-05
6 *1330:A1 *1271:B2 0.000181383
7 *1330:A1 *1336:A1 3.09164e-05
8 *1260:A2 *1260:A1 0.000650004
9 *1330:A0 *1330:A1 0.000241833
10 *1335:A0 *1260:A1 8.49205e-05
11 *1336:S *1260:A1 0
12 *1402:D *1330:A1 0.000203178
13 *1403:CLK *1260:A1 2.14129e-05
14 *1426:A *1260:A1 9.27326e-05
15 *171:36 *1260:A1 1.61831e-05
16 *179:16 *1260:A1 1.56315e-05
17 *189:53 *1260:A1 7.23602e-05
*RES
1 *1402:Q *221:4 1.6 
2 *221:4 *1260:A1 16.91 
3 *221:4 *1330:A1 11.555 
*END

*D_NET *222 0.00162749
*CONN
*I *1271:A1 I *D sky130_fd_sc_hd__a22o_1
*I *1331:A1 I *D sky130_fd_sc_hd__mux2_1
*I *1403:Q O *D sky130_fd_sc_hd__dfrtp_1
*CAP
1 *1271:A1 0.000273411
2 *1331:A1 2.77685e-05
3 *1403:Q 0.000195068
4 *222:8 0.000496248
5 *1271:A1 *1271:B2 0
6 *1274:C1 *1271:A1 0
7 *1331:A0 *1271:A1 0.000152413
8 *1331:A0 *1331:A1 3.86529e-05
9 *1403:D *1271:A1 0
10 *104:29 *1271:A1 2.30292e-05
11 *104:40 *1271:A1 0.000237243
12 *179:8 *222:8 6.47326e-05
13 *179:16 *222:8 4.65698e-05
14 *189:69 *1331:A1 7.23533e-05
*RES
1 *1403:Q *222:8 6.12 
2 *222:8 *1331:A1 4.47 
3 *222:8 *1271:A1 9.285 
*END

*D_NET *223 0.00199305
*CONN
*I *1333:A1 I *D sky130_fd_sc_hd__mux2_1
*I *1240:B2 I *D sky130_fd_sc_hd__a221o_1
*I *1404:Q O *D sky130_fd_sc_hd__dfrtp_1
*CAP
1 *1333:A1 6.91853e-05
2 *1240:B2 0.000163637
3 *1404:Q 0.000273092
4 *223:12 0.000505914
5 *1240:B2 *1237:A1 0
6 *1240:B2 *1237:B2 0
7 *1240:B2 *1240:A1 6.03947e-06
8 *223:12 *1237:A1 0.000113797
9 *223:12 *1323:A1 0
10 *1240:C1 *1240:B2 0.000140905
11 *1323:A0 *1333:A1 3.66286e-05
12 *1323:A0 *223:12 0.0001249
13 *1333:A0 *1333:A1 1.19928e-05
14 *1333:S *1333:A1 4.82919e-05
15 *1343:A0 *223:12 0
16 *1396:RESET_B *1333:A1 4.41506e-05
17 *1396:RESET_B *223:12 7.10578e-05
18 *175:76 *1240:B2 0.000304948
19 *175:78 *1240:B2 7.47284e-05
20 *177:76 *1240:B2 3.78034e-06
*RES
1 *1404:Q *223:12 10.925 
2 *223:12 *1240:B2 10.1488 
3 *223:12 *1333:A1 3.085 
*END

*D_NET *224 0.00204402
*CONN
*I *1334:A1 I *D sky130_fd_sc_hd__mux2_1
*I *1247:B2 I *D sky130_fd_sc_hd__a221o_1
*I *1405:Q O *D sky130_fd_sc_hd__dfrtp_1
*CAP
1 *1334:A1 6.87738e-05
2 *1247:B2 0.000334793
3 *1405:Q 5.82154e-05
4 *224:8 0.000461782
5 *1247:B2 *1247:A1 1.12643e-05
6 *1247:C1 *1247:B2 9.50342e-06
7 *1251:C1 *1247:B2 1.07797e-05
8 *1352:CLK *1247:B2 0.00019194
9 *1352:D *1247:B2 9.71067e-05
10 *110:6 *1247:B2 1.12643e-05
11 *110:10 *1247:B2 0.000451829
12 *110:10 *1334:A1 0.000139238
13 *175:68 *224:8 0.000113247
14 *175:70 *1334:A1 0
15 *178:20 *224:8 7.61941e-05
16 *200:87 *1247:B2 8.09021e-06
17 *201:92 *1247:B2 0
*RES
1 *1405:Q *224:8 5.43 
2 *224:8 *1247:B2 12.7238 
3 *224:8 *1334:A1 5.235 
*END

*D_NET *225 0.0018336
*CONN
*I *1335:A1 I *D sky130_fd_sc_hd__mux2_1
*I *1263:A1 I *D sky130_fd_sc_hd__a211o_1
*I *1406:Q O *D sky130_fd_sc_hd__dfrtp_1
*CAP
1 *1335:A1 8.12594e-06
2 *1263:A1 0.000147209
3 *1406:Q 0.000200455
4 *225:12 0.00035579
5 *1260:A2 *1263:A1 0.000158066
6 *1260:A2 *1335:A1 3.74161e-05
7 *1263:B1 *1263:A1 0.000136095
8 *1336:A0 *225:12 9.2741e-05
9 *106:47 *1263:A1 0
10 *171:36 *1263:A1 4.3364e-05
11 *171:38 *225:12 3.23391e-05
12 *171:40 *225:12 7.44375e-05
13 *179:16 *1263:A1 8.49205e-05
14 *179:16 *1335:A1 4.82919e-05
15 *179:18 *225:12 8.44359e-05
16 *179:20 *225:12 3.24046e-05
17 *189:53 *225:12 0.000123304
18 *207:51 *1263:A1 0.000174199
*RES
1 *1406:Q *225:12 10.865 
2 *225:12 *1263:A1 9.45875 
3 *225:12 *1335:A1 2.05 
*END

*D_NET *226 0.00217879
*CONN
*I *1271:B2 I *D sky130_fd_sc_hd__a22o_1
*I *1336:A1 I *D sky130_fd_sc_hd__mux2_1
*I *1407:Q O *D sky130_fd_sc_hd__dfrtp_1
*CAP
1 *1271:B2 0.000368376
2 *1336:A1 0.000384608
3 *1407:Q 8.76197e-05
4 *226:8 0.000840603
5 *1260:A1 *1271:B2 7.24779e-05
6 *1260:A2 *1271:B2 0
7 *1271:A1 *1271:B2 0
8 *1274:C1 *1271:B2 0
9 *1330:A0 *226:8 5.07419e-05
10 *1330:A1 *1271:B2 0.000181383
11 *1330:A1 *1336:A1 3.09164e-05
12 *1336:A0 *1336:A1 0
13 *1336:S *1271:B2 0
14 *1336:S *1336:A1 0
15 *1403:CLK *1271:B2 3.05373e-05
16 *1403:D *1271:B2 9.47454e-05
17 *104:12 *1271:B2 0
18 *189:53 *1271:B2 3.67779e-05
19 *189:69 *1271:B2 0
*RES
1 *1407:Q *226:8 4.74 
2 *226:8 *1336:A1 9.72 
3 *226:8 *1271:B2 11.355 
*END

*D_NET *227 0.00215236
*CONN
*I *1338:A1 I *D sky130_fd_sc_hd__mux2_1
*I *1234:A1 I *D sky130_fd_sc_hd__a22o_1
*I *1408:Q O *D sky130_fd_sc_hd__dfrtp_1
*CAP
1 *1338:A1 0.000119884
2 *1234:A1 0.000694359
3 *1408:Q 3.81938e-05
4 *227:6 0.000852438
5 *1234:B2 *1234:A1 2.75229e-05
6 *1408:CLK *1234:A1 4.29016e-05
7 *1422:A *1234:A1 3.76454e-05
8 *1466:A *1338:A1 0
9 *175:29 *1234:A1 0.000100198
10 *186:38 *1338:A1 0.000227536
11 *213:6 *1234:A1 7.27298e-06
12 *213:6 *227:6 4.40325e-06
*RES
1 *1408:Q *227:6 2.05 
2 *227:6 *1234:A1 9.655 
3 *227:6 *1338:A1 8.255 
*END

*D_NET *228 0.00207163
*CONN
*I *1249:B2 I *D sky130_fd_sc_hd__a22o_1
*I *1339:A1 I *D sky130_fd_sc_hd__mux2_1
*I *1409:Q O *D sky130_fd_sc_hd__dfrtp_1
*CAP
1 *1249:B2 9.03555e-05
2 *1339:A1 0.000113893
3 *1409:Q 0.000294726
4 *228:8 0.000498975
5 *1278:A0 *1249:B2 0.000133068
6 *1339:S *1339:A1 8.40269e-05
7 *1365:RESET_B *1249:B2 0.000173508
8 *1409:D *1339:A1 4.70343e-05
9 *1409:RESET_B *1249:B2 5.92191e-05
10 *1409:RESET_B *1339:A1 1.71013e-05
11 *1425:A *1339:A1 4.21447e-06
12 *1452:A *1339:A1 8.57024e-05
13 *1452:A *228:8 5.85354e-05
14 *175:42 *1249:B2 0.000181376
15 *175:42 *1339:A1 0.000229897
*RES
1 *1409:Q *228:8 6.81 
2 *228:8 *1339:A1 7.05 
3 *228:8 *1249:B2 7.275 
*END

*D_NET *229 0.00180316
*CONN
*I *1340:A1 I *D sky130_fd_sc_hd__mux2_1
*I *1262:B2 I *D sky130_fd_sc_hd__a221o_1
*I *1410:Q O *D sky130_fd_sc_hd__dfrtp_1
*CAP
1 *1340:A1 0.000238457
2 *1262:B2 0.000208771
3 *1410:Q 0.00015706
4 *229:10 0.000604288
5 *1271:B1 *1262:B2 0.000271559
6 *1274:C1 *1262:B2 0
7 *1274:C1 *229:10 0
8 *1340:A0 *1340:A1 3.00381e-05
9 *1422:A *229:10 4.82919e-05
10 *104:12 *1262:B2 0
11 *104:12 *229:10 0
12 *104:29 *1262:B2 7.35813e-05
13 *111:34 *1340:A1 0.00017111
*RES
1 *1410:Q *229:10 5.94 
2 *229:10 *1262:B2 7.96875 
3 *229:10 *1340:A1 7.845 
*END

*D_NET *230 0.00135677
*CONN
*I *1274:A1 I *D sky130_fd_sc_hd__a2111o_1
*I *1341:A1 I *D sky130_fd_sc_hd__mux2_1
*I *1411:Q O *D sky130_fd_sc_hd__dfrtp_1
*CAP
1 *1274:A1 0.000156299
2 *1341:A1 6.56674e-05
3 *1411:Q 0.000211444
4 *230:8 0.00043341
5 *1250:C1 *1274:A1 0
6 *1250:C1 *1341:A1 0
7 *103:35 *230:8 0.000186204
8 *156:29 *1341:A1 9.50342e-06
9 *171:125 *1274:A1 0.000175207
10 *171:125 *1341:A1 8.00251e-05
11 *190:40 *1274:A1 3.45679e-05
12 *207:78 *1341:A1 4.43871e-06
*RES
1 *1411:Q *230:8 6.465 
2 *230:8 *1341:A1 4.98 
3 *230:8 *1274:A1 6.54 
*END

*D_NET *231 0.00165375
*CONN
*I *1343:A1 I *D sky130_fd_sc_hd__mux2_1
*I *1237:A1 I *D sky130_fd_sc_hd__a22o_1
*I *1412:Q O *D sky130_fd_sc_hd__dfrtp_1
*CAP
1 *1343:A1 0.000100005
2 *1237:A1 0.000369014
3 *1412:Q 3.22719e-05
4 *231:6 0.000501291
5 *1237:A1 *1237:B2 6.23462e-05
6 *1237:A1 *1323:A1 4.11194e-05
7 *1240:B2 *1237:A1 0
8 *1404:RESET_B *1343:A1 9.54399e-05
9 *177:34 *1237:A1 4.66108e-05
10 *177:34 *231:6 3.74161e-05
11 *177:36 *1343:A1 7.30547e-05
12 *177:62 *1343:A1 2.92496e-05
13 *187:70 *1237:A1 0.000152136
14 *187:78 *1343:A1 0
15 *223:12 *1237:A1 0.000113797
*RES
1 *1412:Q *231:6 2.05 
2 *231:6 *1237:A1 11.63 
3 *231:6 *1343:A1 7.745 
*END

*D_NET *232 0.00284866
*CONN
*I *1248:B2 I *D sky130_fd_sc_hd__a22o_1
*I *1344:A1 I *D sky130_fd_sc_hd__mux2_1
*I *1413:Q O *D sky130_fd_sc_hd__dfrtp_1
*CAP
1 *1248:B2 0.000220384
2 *1344:A1 0.000167691
3 *1413:Q 0
4 *232:6 0.000388075
5 *1344:A1 *1260:B2 0.00015896
6 *1344:A0 *1344:A1 0.000270415
7 *1454:A *1248:B2 0.000177338
8 *1454:A *1344:A1 0.000104317
9 *86:37 *1248:B2 0.000311288
10 *106:60 *1344:A1 9.8249e-05
11 *189:21 *1248:B2 0.000330375
12 *189:27 *1248:B2 0.000137082
13 *189:27 *1344:A1 0.000268292
14 *206:28 *1248:B2 0.000216196
*RES
1 *1413:Q *232:6 3.6 
2 *232:6 *1344:A1 9.285 
3 *232:6 *1248:B2 11.925 
*END

*D_NET *233 0.00331253
*CONN
*I *1260:B2 I *D sky130_fd_sc_hd__a22o_1
*I *1345:A1 I *D sky130_fd_sc_hd__mux2_1
*I *1414:Q O *D sky130_fd_sc_hd__dfrtp_1
*CAP
1 *1260:B2 0.000195497
2 *1345:A1 0.000111442
3 *1414:Q 0.000574535
4 *233:8 0.000881474
5 *233:8 *234:10 4.82919e-05
6 *1344:A0 *1260:B2 6.52265e-05
7 *1344:A1 *1260:B2 0.00015896
8 *1407:CLK *1260:B2 0
9 *1407:CLK *1345:A1 0
10 *1414:D *1345:A1 0
11 *1414:RESET_B *233:8 5.78185e-05
12 *1454:A *1260:B2 0.000155928
13 *106:60 *1260:B2 0.000270415
14 *160:14 *1345:A1 7.18738e-05
15 *177:12 *233:8 0.000383774
16 *177:24 *1345:A1 4.9968e-05
17 *177:116 *1260:B2 0.000278799
18 *177:116 *1345:A1 8.53113e-06
*RES
1 *1414:Q *233:8 11.295 
2 *233:8 *1345:A1 5.745 
3 *233:8 *1260:B2 9.54 
*END

*D_NET *234 0.00555427
*CONN
*I *1269:B2 I *D sky130_fd_sc_hd__a221o_1
*I *1346:A1 I *D sky130_fd_sc_hd__mux2_1
*I *1415:Q O *D sky130_fd_sc_hd__dfrtp_1
*CAP
1 *1269:B2 0.00102223
2 *1346:A1 0
3 *1415:Q 0.000143652
4 *234:10 0.00116589
5 *1269:B2 *1213:A1 0
6 *1269:B2 *1227:A1 0
7 *1269:B2 *1296:A1 0.000286068
8 *1212:A *1269:B2 0.000181376
9 *1233:B_N *1269:B2 3.15822e-05
10 *1269:C1 *1269:B2 4.21224e-05
11 *1296:A0 *1269:B2 0.000148465
12 *1353:RESET_B *1269:B2 0.000136227
13 *1413:D *1269:B2 0
14 *1414:CLK *234:10 1.17309e-05
15 *1415:RESET_B *234:10 8.23457e-05
16 *1454:A *1269:B2 0
17 *86:25 *1269:B2 0.000251317
18 *86:27 *1269:B2 0.000303559
19 *86:37 *1269:B2 0.000226834
20 *157:10 *1269:B2 0.000180682
21 *157:10 *234:10 2.30797e-05
22 *157:14 *234:10 0.000139238
23 *177:12 *234:10 8.40269e-05
24 *177:34 *234:10 0.000118081
25 *177:116 *1269:B2 7.8831e-05
26 *199:19 *1269:B2 0.000135923
27 *199:27 *1269:B2 0.000306232
28 *206:34 *1269:B2 0.00040649
29 *233:8 *234:10 4.82919e-05
*RES
1 *1415:Q *234:10 7.32 
2 *234:10 *1346:A1 3.6 
3 *234:10 *1269:B2 29.6887 
*END

*D_NET *235 0.00149448
*CONN
*I *1240:A1 I *D sky130_fd_sc_hd__a221o_1
*I *1348:A1 I *D sky130_fd_sc_hd__mux2_1
*I *1416:Q O *D sky130_fd_sc_hd__dfrtp_1
*CAP
1 *1240:A1 0.000255035
2 *1348:A1 0.000290431
3 *1416:Q 0
4 *235:4 0.000545466
5 *1240:A2 *1240:A1 1.08758e-05
6 *1240:B1 *1240:A1 2.76178e-05
7 *1240:B2 *1240:A1 6.03947e-06
8 *1261:A2 *1348:A1 4.82863e-05
9 *107:30 *1348:A1 0
10 *177:76 *1240:A1 1.79348e-05
11 *206:44 *1348:A1 0.000292794
*RES
1 *1416:Q *235:4 1.6 
2 *235:4 *1348:A1 9.68 
3 *235:4 *1240:A1 4.9 
*END

*D_NET *236 0.00137189
*CONN
*I *1246:B2 I *D sky130_fd_sc_hd__a22o_1
*I *1349:A1 I *D sky130_fd_sc_hd__mux2_1
*I *1417:Q O *D sky130_fd_sc_hd__dfrtp_1
*CAP
1 *1246:B2 0.000163631
2 *1349:A1 0.00022278
3 *1417:Q 5.74818e-05
4 *236:8 0.000443892
5 *1349:S *1349:A1 3.09233e-05
6 *1380:CLK *1246:B2 0
7 *1380:CLK *1349:A1 0
8 *173:33 *1246:B2 2.04147e-05
9 *173:33 *1349:A1 8.98657e-05
10 *173:46 *1246:B2 0.00025631
11 *178:49 *236:8 8.65905e-05
12 *188:47 *1349:A1 0
13 *188:67 *1349:A1 0
*RES
1 *1417:Q *236:8 4.395 
2 *236:8 *1349:A1 7.65 
3 *236:8 *1246:B2 7.275 
*END

*D_NET *237 0.000818261
*CONN
*I *1261:B2 I *D sky130_fd_sc_hd__a22o_1
*I *1350:A1 I *D sky130_fd_sc_hd__mux2_1
*I *1418:Q O *D sky130_fd_sc_hd__dfrtp_1
*CAP
1 *1261:B2 4.16842e-05
2 *1350:A1 0.000106794
3 *1418:Q 2.08101e-05
4 *237:6 0.000169288
5 *1350:S *1350:A1 6.28765e-05
6 *1418:RESET_B *1261:B2 0.000228937
7 *1418:RESET_B *1350:A1 8.49205e-05
8 *158:8 *1261:B2 9.93004e-05
9 *158:8 *1350:A1 3.64998e-06
*RES
1 *1418:Q *237:6 1.96 
2 *237:6 *1350:A1 7.775 
3 *237:6 *1261:B2 3.775 
*END

*D_NET *238 0.00175235
*CONN
*I *1272:B2 I *D sky130_fd_sc_hd__a22o_1
*I *1351:A1 I *D sky130_fd_sc_hd__mux2_1
*I *1419:Q O *D sky130_fd_sc_hd__dfrtp_1
*CAP
1 *1272:B2 0.000279207
2 *1351:A1 0
3 *1419:Q 0.000161477
4 *238:6 0.000440684
5 *1272:B2 *1326:A1 3.79532e-05
6 *1303:A0 *1272:B2 7.49279e-05
7 *1326:A0 *238:6 0.000195946
8 *107:18 *1272:B2 2.49909e-05
9 *109:29 *1272:B2 0.000450716
10 *207:18 *1272:B2 3.75126e-05
11 *207:18 *238:6 4.89295e-05
*RES
1 *1419:Q *238:6 3.775 
2 *238:6 *1351:A1 1.6 
3 *238:6 *1272:B2 11.96 
*END

*D_NET *239 0.00198662
*CONN
*I *1227:A1 I *D sky130_fd_sc_hd__a221o_1
*I *1213:A1 I *D sky130_fd_sc_hd__mux2_1
*I *1352:Q O *D sky130_fd_sc_hd__dfrtp_1
*CAP
1 *1227:A1 0.000311036
2 *1213:A1 0.000235855
3 *1352:Q 6.98191e-05
4 *239:8 0.000616709
5 *1235:B *1227:A1 0
6 *1269:B2 *1213:A1 0
7 *1269:B2 *1227:A1 0
8 *1273:C1 *239:8 0.000186204
9 *1352:RESET_B *239:8 0.000128934
10 *1445:A *1227:A1 0.000199718
11 *95:33 *1227:A1 0.000177738
12 *106:12 *1227:A1 2.87867e-05
13 *110:10 *1213:A1 0
14 *110:10 *1227:A1 0
15 *178:20 *1213:A1 3.18219e-05
16 *197:105 *1227:A1 0
17 *199:27 *1227:A1 0
*RES
1 *1352:Q *239:8 6.465 
2 *239:8 *1213:A1 6.72 
3 *239:8 *1227:A1 9.825 
*END

*D_NET *240 0.000952863
*CONN
*I *1248:A1 I *D sky130_fd_sc_hd__a22o_1
*I *1214:A1 I *D sky130_fd_sc_hd__mux2_1
*I *1353:Q O *D sky130_fd_sc_hd__dfrtp_1
*CAP
1 *1248:A1 0.000205192
2 *1214:A1 0
3 *1353:Q 6.81854e-05
4 *240:12 0.000273377
5 *1214:A0 *240:12 7.23602e-05
6 *1215:S *240:12 7.06865e-05
7 *1250:C1 *1248:A1 1.37328e-05
8 *86:37 *1248:A1 0.00024397
9 *173:12 *240:12 5.35969e-06
*RES
1 *1353:Q *240:12 6.92 
2 *240:12 *1214:A1 1.6 
3 *240:12 *1248:A1 4.48 
*END

*D_NET *241 0.00181143
*CONN
*I *1215:A1 I *D sky130_fd_sc_hd__mux2_1
*I *1262:A1 I *D sky130_fd_sc_hd__a221o_1
*I *1354:Q O *D sky130_fd_sc_hd__dfrtp_1
*CAP
1 *1215:A1 4.70935e-05
2 *1262:A1 0.000131516
3 *1354:Q 0.000247002
4 *241:8 0.000425611
5 *1262:A2 *1215:A1 0.000136884
6 *1262:A2 *1262:A1 0.00022428
7 *1264:C *1262:A1 3.96153e-05
8 *1271:B1 *1262:A1 0.000118081
9 *111:34 *241:8 0.000280802
10 *179:49 *1262:A1 3.79424e-05
11 *179:56 *1215:A1 7.00066e-05
12 *179:56 *1262:A1 5.26006e-05
*RES
1 *1354:Q *241:8 6.81 
2 *241:8 *1262:A1 7.14 
3 *241:8 *1215:A1 5.235 
*END

*D_NET *242 0.00132176
*CONN
*I *1273:A1 I *D sky130_fd_sc_hd__a221o_1
*I *1216:A1 I *D sky130_fd_sc_hd__mux2_1
*I *1355:Q O *D sky130_fd_sc_hd__dfrtp_1
*CAP
1 *1273:A1 0.000109514
2 *1216:A1 0.000174813
3 *1355:Q 0.000130897
4 *242:10 0.000415224
5 *1273:A1 *274:12 7.17811e-05
6 *1216:A0 *1216:A1 8.65905e-05
7 *103:8 *1273:A1 0.000127424
8 *103:8 *242:10 5.02217e-05
9 *207:51 *242:10 0
10 *207:64 *1216:A1 0.00015529
*RES
1 *1355:Q *242:10 5.52 
2 *242:10 *1216:A1 6.81 
3 *242:10 *1273:A1 6.255 
*END

*D_NET *243 0.0019411
*CONN
*I *1283:A1 I *D sky130_fd_sc_hd__mux2_1
*I *1219:B2 I *D sky130_fd_sc_hd__a22o_1
*I *1364:Q O *D sky130_fd_sc_hd__dfrtp_1
*CAP
1 *1283:A1 0
2 *1219:B2 0.000331095
3 *1364:Q 0.00021903
4 *243:12 0.000550125
5 *1356:CLK *1219:B2 5.42473e-05
6 *1433:A *243:12 4.7101e-05
7 *144:29 *1219:B2 0.000140905
8 *185:8 *243:12 8.40269e-05
9 *185:25 *1219:B2 0.000272978
10 *185:25 *243:12 0.000123225
11 *186:66 *243:12 0
12 *186:76 *1219:B2 0.000106377
13 *186:76 *243:12 1.19928e-05
*RES
1 *1364:Q *243:12 9.59 
2 *243:12 *1219:B2 12.17 
3 *243:12 *1283:A1 1.6 
*END

*D_NET *244 0.00152953
*CONN
*I *1284:A1 I *D sky130_fd_sc_hd__mux2_1
*I *1249:A1 I *D sky130_fd_sc_hd__a22o_1
*I *1365:Q O *D sky130_fd_sc_hd__dfrtp_1
*CAP
1 *1284:A1 0.000175611
2 *1249:A1 0.000426588
3 *1365:Q 5.32007e-05
4 *244:8 0.0006554
5 *1249:B1 *1249:A1 2.75229e-05
6 *1284:S *1284:A1 3.95724e-05
7 *186:49 *1249:A1 0.000103974
8 *186:49 *244:8 4.76659e-05
*RES
1 *1365:Q *244:8 4.725 
2 *244:8 *1249:A1 9.99 
3 *244:8 *1284:A1 6.135 
*END

*D_NET *245 0.00170646
*CONN
*I *1285:A1 I *D sky130_fd_sc_hd__mux2_1
*I *1257:A1 I *D sky130_fd_sc_hd__a221o_1
*I *1366:Q O *D sky130_fd_sc_hd__dfrtp_1
*CAP
1 *1285:A1 0.000491159
2 *1257:A1 9.96703e-05
3 *1366:Q 0
4 *245:4 0.00059083
5 *1257:A2 *1257:A1 0.000143159
6 *1257:A2 *1285:A1 9.44092e-05
7 *1280:A1 *1285:A1 3.64998e-06
8 *1290:A0 *1257:A1 8.65905e-05
9 *1366:D *1285:A1 7.06865e-05
10 *169:33 *1285:A1 3.49015e-05
11 *205:35 *1285:A1 9.14049e-05
*RES
1 *1366:Q *245:4 1.6 
2 *245:4 *1257:A1 3.79 
3 *245:4 *1285:A1 12.005 
*END

*D_NET *246 0.00163954
*CONN
*I *1270:B2 I *D sky130_fd_sc_hd__a221o_1
*I *1286:A1 I *D sky130_fd_sc_hd__mux2_1
*I *1367:Q O *D sky130_fd_sc_hd__dfrtp_1
*CAP
1 *1270:B2 8.47212e-05
2 *1286:A1 7.35009e-05
3 *1367:Q 0.000268046
4 *246:8 0.000426268
5 *1241:D1 *1270:B2 6.03947e-06
6 *1249:A2 *1270:B2 0.000119221
7 *1249:A2 *1286:A1 0.000156828
8 *1270:B1 *1270:B2 8.69088e-05
9 *1275:B2 *1270:B2 1.1561e-05
10 *1281:A0 *1286:A1 4.99619e-05
11 *1320:S *1270:B2 7.45881e-05
12 *1321:S *1270:B2 1.82476e-05
13 *1321:S *1286:A1 6.07223e-05
14 *102:29 *1286:A1 1.4389e-05
15 *152:29 *246:8 0.00018854
*RES
1 *1367:Q *246:8 6.81 
2 *246:8 *1286:A1 5.94 
3 *246:8 *1270:B2 6.36375 
*END

*D_NET *247 0.00083893
*CONN
*I *1223:B2 I *D sky130_fd_sc_hd__a22o_1
*I *1288:A1 I *D sky130_fd_sc_hd__mux2_1
*I *1368:Q O *D sky130_fd_sc_hd__dfrtp_1
*CAP
1 *1223:B2 0
2 *1288:A1 3.26677e-05
3 *1368:Q 0.000162863
4 *247:12 0.000195531
5 *247:12 *1223:A1 4.92096e-05
6 *1275:B1 *1288:A1 1.46744e-05
7 *1288:S *1288:A1 4.99619e-05
8 *1298:A0 *247:12 0
9 *168:25 *1288:A1 0.000200615
10 *204:80 *1288:A1 0.000123225
11 *204:80 *247:12 1.0183e-05
*RES
1 *1368:Q *247:12 8.03 
2 *247:12 *1288:A1 3.43 
3 *247:12 *1223:B2 1.6 
*END

*D_NET *248 0.00178107
*CONN
*I *1289:A1 I *D sky130_fd_sc_hd__mux2_1
*I *1245:A1 I *D sky130_fd_sc_hd__a22o_1
*I *1369:Q O *D sky130_fd_sc_hd__dfrtp_1
*CAP
1 *1289:A1 0.00018334
2 *1245:A1 0.000168604
3 *1369:Q 0.00012901
4 *248:8 0.000480955
5 *1245:A1 *1245:B2 4.82863e-05
6 *1245:B1 *1245:A1 4.30228e-05
7 *1289:A0 *1245:A1 0
8 *1289:A0 *1289:A1 0
9 *1289:S *1289:A1 1.83756e-05
10 *1293:A0 *1245:A1 5.83121e-06
11 *1305:S *1289:A1 2.39461e-05
12 *1384:CLK *248:8 2.79137e-05
13 *1384:D *248:8 5.83121e-06
14 *1421:A *1245:A1 0.000268973
15 *1421:A *1289:A1 0.000181376
16 *147:12 *1245:A1 9.47267e-06
17 *173:101 *1245:A1 0.000174525
18 *182:57 *248:8 1.16077e-05
19 *191:53 *1245:A1 0
20 *191:53 *1289:A1 0
*RES
1 *1369:Q *248:8 5.085 
2 *248:8 *1245:A1 8.25 
3 *248:8 *1289:A1 6.885 
*END

*D_NET *249 0.000591506
*CONN
*I *1257:B2 I *D sky130_fd_sc_hd__a221o_1
*I *1290:A1 I *D sky130_fd_sc_hd__mux2_1
*I *1370:Q O *D sky130_fd_sc_hd__dfrtp_1
*CAP
1 *1257:B2 4.35427e-05
2 *1290:A1 2.90307e-05
3 *1370:Q 6.4091e-05
4 *249:10 0.000136664
5 *1257:C1 *1257:B2 2.7919e-05
6 *1257:C1 *1290:A1 2.96334e-05
7 *1290:A0 *1257:B2 7.59705e-05
8 *1290:A0 *1290:A1 0.000123225
9 *1290:A0 *249:10 0
10 *1290:S *1290:A1 2.75229e-05
11 *186:91 *249:10 3.39064e-05
*RES
1 *1370:Q *249:10 6.725 
2 *249:10 *1290:A1 2.74 
3 *249:10 *1257:B2 2.86375 
*END

*D_NET *250 0.00209342
*CONN
*I *1291:A1 I *D sky130_fd_sc_hd__mux2_1
*I *1267:A1 I *D sky130_fd_sc_hd__a22o_1
*I *1371:Q O *D sky130_fd_sc_hd__dfrtp_1
*CAP
1 *1291:A1 0.000316359
2 *1267:A1 3.46943e-05
3 *1371:Q 0.000308284
4 *250:10 0.000659337
5 *1291:A0 *1291:A1 4.66108e-05
6 *1307:A *1267:A1 9.5433e-05
7 *1307:A *250:10 5.16418e-05
8 *1386:CLK *1267:A1 3.68596e-05
9 *1386:CLK *250:10 6.65804e-05
10 *1387:D *250:10 0
11 *150:14 *250:10 0
12 *193:43 *250:10 1.8348e-05
13 *193:62 *250:10 4.80182e-05
14 *208:68 *1291:A1 0.000411252
*RES
1 *1371:Q *250:10 8.265 
2 *250:10 *1267:A1 4.725 
3 *250:10 *1291:A1 7.845 
*END

*D_NET *251 0.00210728
*CONN
*I *1230:A1 I *D sky130_fd_sc_hd__a221o_1
*I *1293:A1 I *D sky130_fd_sc_hd__mux2_1
*I *1372:Q O *D sky130_fd_sc_hd__dfrtp_1
*CAP
1 *1230:A1 0.000246305
2 *1293:A1 0.00011172
3 *1372:Q 0
4 *251:4 0.000358025
5 *1230:A1 *1230:B2 1.12643e-05
6 *1222:C *1230:A1 0.000122325
7 *1230:B1 *1230:A1 4.66108e-05
8 *1245:B1 *1230:A1 0.000160211
9 *1245:B1 *1293:A1 2.30258e-05
10 *1372:RESET_B *1293:A1 0
11 *99:23 *1230:A1 0.000221063
12 *99:40 *1230:A1 0.000486013
13 *197:40 *1230:A1 4.86753e-05
14 *197:40 *1293:A1 2.39461e-05
15 *197:49 *1230:A1 7.18079e-05
16 *197:74 *1230:A1 0.00011745
17 *200:50 *1230:A1 5.88334e-05
*RES
1 *1372:Q *251:4 1.6 
2 *251:4 *1293:A1 7.265 
3 *251:4 *1230:A1 10.345 
*END

*D_NET *252 0.000945211
*CONN
*I *1245:B2 I *D sky130_fd_sc_hd__a22o_1
*I *1294:A1 I *D sky130_fd_sc_hd__mux2_1
*I *1373:Q O *D sky130_fd_sc_hd__dfrtp_1
*CAP
1 *1245:B2 0.000134113
2 *1294:A1 0
3 *1373:Q 0.000172485
4 *252:6 0.000306598
5 *1245:A1 *1245:B2 4.82863e-05
6 *1245:B1 *1245:B2 4.66108e-05
7 *1294:S *1245:B2 2.68464e-05
8 *147:12 *1245:B2 1.91597e-05
9 *173:63 *252:6 2.49909e-05
10 *173:78 *252:6 9.38846e-05
11 *173:101 *1245:B2 4.53904e-05
12 *173:101 *252:6 2.68464e-05
*RES
1 *1373:Q *252:6 3.775 
2 *252:6 *1294:A1 1.6 
3 *252:6 *1245:B2 4.15 
*END

*D_NET *253 0.000832503
*CONN
*I *1258:A1 I *D sky130_fd_sc_hd__a221o_1
*I *1295:A1 I *D sky130_fd_sc_hd__mux2_1
*I *1374:Q O *D sky130_fd_sc_hd__dfrtp_1
*CAP
1 *1258:A1 5.17669e-05
2 *1295:A1 2.89988e-05
3 *1374:Q 2.8139e-05
4 *253:10 0.000108905
5 *1258:A2 *1258:A1 0.000105748
6 *1258:A2 *253:10 1.1561e-05
7 *1258:C1 *1258:A1 0.000198939
8 *1258:C1 *253:10 7.4027e-05
9 *1295:A0 *1258:A1 4.82919e-05
10 *1295:A0 *1295:A1 4.66108e-05
11 *1316:A0 *1258:A1 3.4075e-05
12 *186:91 *253:10 9.54399e-05
*RES
1 *1374:Q *253:10 6.725 
2 *253:10 *1295:A1 2.05 
3 *253:10 *1258:A1 3.775 
*END

*D_NET *254 0.00170578
*CONN
*I *1269:A1 I *D sky130_fd_sc_hd__a221o_1
*I *1296:A1 I *D sky130_fd_sc_hd__mux2_1
*I *1375:Q O *D sky130_fd_sc_hd__dfrtp_1
*CAP
1 *1269:A1 0
2 *1296:A1 0.000304261
3 *1375:Q 0.000132112
4 *254:12 0.000436374
5 *1241:D1 *1296:A1 4.40325e-06
6 *1241:D1 *254:12 4.66108e-05
7 *1269:B1 *1296:A1 4.66108e-05
8 *1269:B2 *1296:A1 0.000286068
9 *1269:C1 *1296:A1 9.62442e-06
10 *1427:A *254:12 0.000162318
11 *167:10 *254:12 3.09164e-05
12 *167:31 *254:12 0.000137578
13 *182:10 *254:12 8.49205e-05
14 *209:106 *254:12 2.39856e-05
*RES
1 *1375:Q *254:12 8.975 
2 *254:12 *1296:A1 5.77 
3 *254:12 *1269:A1 1.6 
*END

*D_NET *255 0.00145642
*CONN
*I *1223:A1 I *D sky130_fd_sc_hd__a22o_1
*I *1298:A1 I *D sky130_fd_sc_hd__mux2_1
*I *1376:Q O *D sky130_fd_sc_hd__dfrtp_1
*CAP
1 *1223:A1 0.000371354
2 *1298:A1 6.6545e-05
3 *1376:Q 0.000204831
4 *255:16 0.00064273
5 *1223:A2 *1223:A1 0
6 *1266:B1 *1223:A1 0
7 *1298:A0 *1223:A1 0
8 *1298:S *1298:A1 2.11084e-05
9 *1358:D *1223:A1 1.54837e-05
10 *1358:D *255:16 3.68695e-05
11 *148:32 *255:16 0
12 *195:12 *255:16 0
13 *195:25 *255:16 4.82863e-05
14 *247:12 *1223:A1 4.92096e-05
*RES
1 *1376:Q *255:16 8.75 
2 *255:16 *1298:A1 2.395 
3 *255:16 *1223:A1 11.105 
*END

*D_NET *256 0.00224683
*CONN
*I *1299:A1 I *D sky130_fd_sc_hd__mux2_1
*I *1251:A1 I *D sky130_fd_sc_hd__a221o_1
*I *1377:Q O *D sky130_fd_sc_hd__dfrtp_1
*CAP
1 *1299:A1 0
2 *1251:A1 0.000294019
3 *1377:Q 0.000266874
4 *256:12 0.000560893
5 *1299:A0 *1251:A1 6.97202e-05
6 *1377:RESET_B *256:12 4.70393e-05
7 *95:42 *1251:A1 0.000334617
8 *95:42 *256:12 3.86607e-05
9 *100:27 *1251:A1 9.50342e-06
10 *100:42 *1251:A1 0.00060271
11 *176:28 *1251:A1 1.33293e-05
12 *182:106 *256:12 9.46525e-06
*RES
1 *1377:Q *256:12 8.99 
2 *256:12 *1251:A1 14.075 
3 *256:12 *1299:A1 1.6 
*END

*D_NET *257 0.000918197
*CONN
*I *1259:B2 I *D sky130_fd_sc_hd__a221o_1
*I *1300:A1 I *D sky130_fd_sc_hd__mux2_1
*I *1378:Q O *D sky130_fd_sc_hd__dfrtp_1
*CAP
1 *1259:B2 3.22285e-05
2 *1300:A1 0.000157013
3 *1378:Q 0.000144053
4 *257:14 0.000333295
5 *257:14 *1259:A1 4.99619e-05
6 *1264:B *257:14 3.86607e-05
7 *1300:S *1300:A1 3.00381e-05
8 *92:36 *257:14 3.86607e-05
9 *172:67 *1259:B2 8.48585e-06
10 *172:67 *1300:A1 7.78746e-05
11 *172:67 *257:14 7.92464e-06
*RES
1 *1378:Q *257:14 7.97 
2 *257:14 *1300:A1 4.465 
3 *257:14 *1259:B2 2.2 
*END

*D_NET *258 0.00170657
*CONN
*I *1301:A1 I *D sky130_fd_sc_hd__mux2_1
*I *1268:A1 I *D sky130_fd_sc_hd__a221o_1
*I *1379:Q O *D sky130_fd_sc_hd__dfrtp_1
*CAP
1 *1301:A1 0.000135933
2 *1268:A1 0.000301592
3 *1379:Q 0.000109447
4 *258:8 0.000546972
5 *1268:A1 *1311:A1 1.61874e-05
6 *1268:A1 *266:14 0
7 *1268:A2 *1268:A1 5.00715e-05
8 *1301:A0 *1268:A1 0
9 *1301:A0 *1301:A1 0.000124895
10 *1301:S *1268:A1 5.4003e-05
11 *1301:S *1301:A1 0.000110683
12 *1301:S *258:8 9.66106e-05
13 *1368:CLK *1268:A1 5.33787e-05
14 *1379:RESET_B *1268:A1 0
15 *146:44 *1268:A1 8.25254e-05
16 *183:61 *1268:A1 0
17 *208:62 *1268:A1 2.42747e-05
*RES
1 *1379:Q *258:8 5.085 
2 *258:8 *1268:A1 9.555 
3 *258:8 *1301:A1 6.375 
*END

*D_NET *259 0.00265472
*CONN
*I *1303:A1 I *D sky130_fd_sc_hd__mux2_1
*I *1227:B2 I *D sky130_fd_sc_hd__a221o_1
*I *1380:Q O *D sky130_fd_sc_hd__dfrtp_1
*CAP
1 *1303:A1 0.000317543
2 *1227:B2 0.000404872
3 *1380:Q 3.78154e-05
4 *259:8 0.000760231
5 *1224:D *1227:B2 0.000232105
6 *1227:A2 *1227:B2 6.7053e-05
7 *1230:C1 *1303:A1 0
8 *1239:C *259:8 8.53113e-06
9 *1303:A0 *1303:A1 0.000122152
10 *1445:A *1303:A1 0.000122706
11 *96:8 *1227:B2 5.4155e-06
12 *197:78 *1303:A1 0
13 *200:87 *1227:B2 0.000158066
14 *200:87 *1303:A1 0
15 *200:87 *259:8 0
16 *201:82 *259:8 0
17 *209:37 *1303:A1 3.26735e-05
18 *209:37 *259:8 1.94723e-05
19 *209:82 *1227:B2 0.000278117
20 *209:98 *1227:B2 8.79719e-05
*RES
1 *1380:Q *259:8 4.215 
2 *259:8 *1227:B2 11.55 
3 *259:8 *1303:A1 7.935 
*END

*D_NET *260 0.00338213
*CONN
*I *1247:A1 I *D sky130_fd_sc_hd__a221o_1
*I *1304:A1 I *D sky130_fd_sc_hd__mux2_1
*I *1381:Q O *D sky130_fd_sc_hd__dfrtp_1
*CAP
1 *1247:A1 0.000652107
2 *1304:A1 2.09809e-05
3 *1381:Q 6.83245e-05
4 *260:10 0.000741412
5 *1236:A_N *1247:A1 1.17309e-05
6 *1236:C *1247:A1 5.05066e-06
7 *1236:D *1247:A1 2.05056e-05
8 *1238:B *260:10 4.26188e-05
9 *1238:C *1247:A1 0.000184712
10 *1238:C *1304:A1 8.8266e-05
11 *1239:B *1247:A1 0.000111918
12 *1247:A2 *1247:A1 1.85674e-05
13 *1247:B1 *1247:A1 2.49909e-05
14 *1247:B2 *1247:A1 1.12643e-05
15 *1304:S *1247:A1 0.000458855
16 *1304:S *1304:A1 4.82863e-05
17 *1381:RESET_B *260:10 0
18 *1421:A *1247:A1 6.15576e-06
19 *1447:A *1247:A1 9.18997e-05
20 *95:18 *1247:A1 8.40213e-05
21 *107:10 *1247:A1 7.69678e-05
22 *110:6 *1247:A1 6.36639e-05
23 *173:63 *260:10 7.18883e-05
24 *197:95 *1247:A1 5.82176e-05
25 *200:40 *1247:A1 0.000119088
26 *200:72 *1247:A1 0.000138808
27 *200:87 *1247:A1 0.000161829
*RES
1 *1381:Q *260:10 7.235 
2 *260:10 *1304:A1 2.395 
3 *260:10 *1247:A1 21.365 
*END

*D_NET *261 0.00343582
*CONN
*I *1256:A1 I *D sky130_fd_sc_hd__a22o_1
*I *1305:A1 I *D sky130_fd_sc_hd__mux2_1
*I *1382:Q O *D sky130_fd_sc_hd__dfrtp_1
*CAP
1 *1256:A1 0.00124385
2 *1305:A1 0.000218774
3 *1382:Q 0
4 *261:6 0.00146263
5 *1256:A1 *1256:B2 1.83847e-05
6 *1305:A0 *1305:A1 0.000164874
7 *1305:S *1305:A1 5.05437e-05
8 *1386:CLK *1256:A1 5.84801e-05
9 *1386:RESET_B *1256:A1 2.65337e-05
10 *1421:A *1256:A1 4.41506e-05
11 *100:42 *1256:A1 1.61831e-05
12 *100:50 *1256:A1 3.00381e-05
13 *172:10 *1256:A1 4.8854e-05
14 *172:10 *1305:A1 0
15 *183:12 *1256:A1 7.70304e-07
16 *183:16 *1256:A1 5.17476e-05
17 *196:16 *1256:A1 0
18 *196:16 *1305:A1 0
*RES
1 *1382:Q *261:6 3.6 
2 *261:6 *1305:A1 7.995 
3 *261:6 *1256:A1 18.045 
*END

*D_NET *262 0.000773905
*CONN
*I *1306:A1 I *D sky130_fd_sc_hd__mux2_1
*I *1267:B2 I *D sky130_fd_sc_hd__a22o_1
*I *1383:Q O *D sky130_fd_sc_hd__dfrtp_1
*CAP
1 *1306:A1 0
2 *1267:B2 0.000139199
3 *1383:Q 0.000177441
4 *262:6 0.00031664
5 *1306:A0 *262:6 0.000122801
6 *1383:D *262:6 1.19928e-05
7 *1383:RESET_B *262:6 5.83121e-06
*RES
1 *1383:Q *262:6 3.775 
2 *262:6 *1267:B2 3.7 
3 *262:6 *1306:A1 1.6 
*END

*D_NET *263 0.00210286
*CONN
*I *1308:A1 I *D sky130_fd_sc_hd__mux2_1
*I *1230:B2 I *D sky130_fd_sc_hd__a221o_1
*I *1384:Q O *D sky130_fd_sc_hd__dfrtp_1
*CAP
1 *1308:A1 8.25691e-05
2 *1230:B2 0.000366476
3 *1384:Q 0.000104695
4 *263:6 0.00055374
5 *1230:B2 *264:8 0
6 *1222:C *1230:B2 0
7 *1230:A1 *1230:B2 1.12643e-05
8 *1230:C1 *1230:B2 9.50342e-06
9 *1247:C1 *1230:B2 0.000155208
10 *1293:A0 *1230:B2 0.000384392
11 *1309:S *1230:B2 0.000129696
12 *93:29 *1230:B2 0
13 *147:10 *1230:B2 0
14 *150:18 *1230:B2 2.25075e-05
15 *182:47 *1308:A1 0.000112349
16 *182:47 *263:6 0.000163199
17 *197:74 *1230:B2 7.25921e-06
*RES
1 *1384:Q *263:6 3.085 
2 *263:6 *1230:B2 14.4838 
3 *263:6 *1308:A1 2.74 
*END

*D_NET *264 0.00108388
*CONN
*I *1309:A1 I *D sky130_fd_sc_hd__mux2_1
*I *1251:B2 I *D sky130_fd_sc_hd__a221o_1
*I *1385:Q O *D sky130_fd_sc_hd__dfrtp_1
*CAP
1 *1309:A1 4.65159e-05
2 *1251:B2 0.000127733
3 *1385:Q 6.69785e-05
4 *264:8 0.000241228
5 *1230:B2 *264:8 0
6 *1247:C1 *1251:B2 0
7 *1251:A2 *1251:B2 0
8 *1251:C1 *1251:B2 1.16578e-05
9 *1299:A0 *1309:A1 1.33293e-05
10 *1299:A0 *264:8 7.23602e-05
11 *1309:S *1309:A1 3.95724e-05
12 *1309:S *264:8 9.29751e-06
13 *1375:CLK *1251:B2 0.00011379
14 *1375:CLK *264:8 5.4003e-05
15 *1449:A *1251:B2 4.23017e-05
16 *1456:A *1251:B2 0
17 *147:40 *1309:A1 0.000134429
18 *191:68 *264:8 0.000110683
*RES
1 *1385:Q *264:8 5.49 
2 *264:8 *1251:B2 6.25875 
3 *264:8 *1309:A1 5.1 
*END

*D_NET *265 0.000335315
*CONN
*I *1256:B2 I *D sky130_fd_sc_hd__a22o_1
*I *1310:A1 I *D sky130_fd_sc_hd__mux2_1
*I *1386:Q O *D sky130_fd_sc_hd__dfrtp_1
*CAP
1 *1256:B2 3.98163e-05
2 *1310:A1 0.000100818
3 *1386:Q 0
4 *265:4 0.000140635
5 *1256:A1 *1256:B2 1.83847e-05
6 *1386:RESET_B *1256:B2 0
7 *100:42 *1256:B2 1.85674e-05
8 *100:42 *1310:A1 0
9 *100:50 *1310:A1 1.70935e-05
10 *150:14 *1310:A1 0
*RES
1 *1386:Q *265:4 1.6 
2 *265:4 *1310:A1 7.235 
3 *265:4 *1256:B2 2.41 
*END

*D_NET *266 0.00169298
*CONN
*I *1311:A1 I *D sky130_fd_sc_hd__mux2_1
*I *1268:B2 I *D sky130_fd_sc_hd__a221o_1
*I *1387:Q O *D sky130_fd_sc_hd__dfrtp_1
*CAP
1 *1311:A1 6.21944e-05
2 *1268:B2 0
3 *1387:Q 0.000411136
4 *266:14 0.000473331
5 *1268:A1 *1311:A1 1.61874e-05
6 *1268:A1 *266:14 0
7 *1268:B1 *1311:A1 3.00381e-05
8 *1268:B1 *266:14 2.66464e-05
9 *1268:C1 *1311:A1 0.000277223
10 *1368:CLK *266:14 5.05521e-05
11 *146:44 *1311:A1 0.000338173
12 *146:44 *266:14 7.49727e-06
13 *183:61 *266:14 0
*RES
1 *1387:Q *266:14 10.685 
2 *266:14 *1268:B2 1.6 
3 *266:14 *1311:A1 5.035 
*END

*D_NET *267 0.00157803
*CONN
*I *1219:A1 I *D sky130_fd_sc_hd__a22o_1
*I *1313:A1 I *D sky130_fd_sc_hd__mux2_1
*I *1388:Q O *D sky130_fd_sc_hd__dfrtp_1
*CAP
1 *1219:A1 5.09709e-05
2 *1313:A1 7.80355e-05
3 *1388:Q 0.000189152
4 *267:10 0.000318158
5 *1242:C *1219:A1 0.000171172
6 *1242:C *267:10 0.000136182
7 *1388:RESET_B *267:10 0.000116502
8 *176:12 *1313:A1 4.82919e-05
9 *176:20 *1313:A1 0.000120655
10 *194:43 *267:10 3.06477e-05
11 *204:20 *1219:A1 0.00018305
12 *204:20 *267:10 0.00013521
*RES
1 *1388:Q *267:10 7.065 
2 *267:10 *1313:A1 5.085 
3 *267:10 *1219:A1 5.745 
*END

*D_NET *268 0.00125781
*CONN
*I *1314:A1 I *D sky130_fd_sc_hd__mux2_1
*I *1250:A1 I *D sky130_fd_sc_hd__a221o_1
*I *1389:Q O *D sky130_fd_sc_hd__dfrtp_1
*CAP
1 *1314:A1 0
2 *1250:A1 0.000138954
3 *1389:Q 6.57238e-05
4 *268:10 0.000204678
5 *1250:A1 *1250:B2 5.83121e-06
6 *1250:A2 *1250:A1 1.88937e-05
7 *1252:D1 *1250:A1 0.000158297
8 *1253:A *1250:A1 1.19928e-05
9 *1253:C *1250:A1 4.66108e-05
10 *1254:A2 *1250:A1 0.000232105
11 *1277:B *1250:A1 8.53113e-06
12 *1277:B *268:10 0.000109995
13 *1314:S *1250:A1 9.50342e-06
14 *1314:S *268:10 0.000118513
15 *1393:CLK *1250:A1 8.15676e-05
16 *194:81 *268:10 4.66108e-05
*RES
1 *1389:Q *268:10 5.43 
2 *268:10 *1250:A1 7.665 
3 *268:10 *1314:A1 3.6 
*END

*D_NET *269 0.0017285
*CONN
*I *1315:A1 I *D sky130_fd_sc_hd__mux2_1
*I *1259:A1 I *D sky130_fd_sc_hd__a221o_1
*I *1390:Q O *D sky130_fd_sc_hd__dfrtp_1
*CAP
1 *1315:A1 0.000402766
2 *1259:A1 0.000124366
3 *1390:Q 0
4 *269:4 0.000527132
5 *1315:A0 *1315:A1 9.50342e-06
6 *1390:D *1315:A1 3.20109e-05
7 *1390:RESET_B *1315:A1 0.000117787
8 *88:12 *1259:A1 2.91399e-05
9 *88:27 *1259:A1 0.000142773
10 *97:35 *1259:A1 3.47837e-05
11 *172:67 *1259:A1 1.17309e-05
12 *184:89 *1259:A1 9.54469e-05
13 *194:19 *1315:A1 0.000151104
14 *205:35 *1315:A1 0
15 *257:14 *1259:A1 4.99619e-05
*RES
1 *1390:Q *269:4 1.6 
2 *269:4 *1259:A1 8.555 
3 *269:4 *1315:A1 11.06 
*END

*D_NET *270 0.00203328
*CONN
*I *1316:A1 I *D sky130_fd_sc_hd__mux2_1
*I *1270:A1 I *D sky130_fd_sc_hd__a221o_1
*I *1391:Q O *D sky130_fd_sc_hd__dfrtp_1
*CAP
1 *1316:A1 0.000342367
2 *1270:A1 0.000333188
3 *1391:Q 0
4 *270:6 0.000675554
5 *1241:D1 *1270:A1 3.14395e-05
6 *1250:B1 *1270:A1 0
7 *1250:C1 *1270:A1 0
8 *1270:A2 *1270:A1 0.000206307
9 *1281:A0 *1270:A1 8.09021e-06
10 *1316:S *1316:A1 1.83756e-05
11 *1389:D *1270:A1 9.50342e-06
12 *1389:D *1316:A1 0.000117825
13 *171:125 *1270:A1 0.000158754
14 *171:125 *1316:A1 0.000131874
*RES
1 *1391:Q *270:6 3.6 
2 *270:6 *1270:A1 10.29 
3 *270:6 *1316:A1 8.685 
*END

*D_NET *271 0.00214811
*CONN
*I *1241:A1 I *D sky130_fd_sc_hd__a2111o_1
*I *1318:A1 I *D sky130_fd_sc_hd__mux2_1
*I *1392:Q O *D sky130_fd_sc_hd__dfrtp_1
*CAP
1 *1241:A1 6.55804e-05
2 *1318:A1 2.36079e-05
3 *1392:Q 0.000561672
4 *271:8 0.00065086
5 *1241:B1 *1241:A1 0.000200648
6 *1241:B1 *1318:A1 7.23602e-05
7 *1241:D1 *1241:A1 4.18603e-06
8 *1250:C1 *1241:A1 0
9 *1252:A1 *1241:A1 0.000252296
10 *1252:A1 *1318:A1 7.23533e-05
11 *1392:D *271:8 0.000118081
12 *1392:RESET_B *271:8 5.85626e-05
13 *102:37 *1241:A1 0
14 *175:50 *271:8 3.19205e-05
15 *190:49 *271:8 3.59784e-05
*RES
1 *1392:Q *271:8 9.915 
2 *271:8 *1318:A1 4.47 
3 *271:8 *1241:A1 6.51 
*END

*D_NET *272 0.00247797
*CONN
*I *1250:B2 I *D sky130_fd_sc_hd__a221o_1
*I *1319:A1 I *D sky130_fd_sc_hd__mux2_1
*I *1393:Q O *D sky130_fd_sc_hd__dfrtp_1
*CAP
1 *1250:B2 0.000108001
2 *1319:A1 2.54252e-05
3 *1393:Q 0.000625548
4 *272:8 0.000758974
5 *1241:D1 *1250:B2 9.06521e-05
6 *1241:D1 *1319:A1 9.71067e-05
7 *1242:C *1250:B2 0.000229897
8 *1242:C *1319:A1 9.5433e-05
9 *1250:A1 *1250:B2 5.83121e-06
10 *1250:A2 *1250:B2 7.63111e-05
11 *1250:B1 *1250:B2 0.000102574
12 *1254:A2 *1250:B2 4.49661e-05
13 *1393:CLK *272:8 0.000102922
14 *1393:RESET_B *272:8 0.000114324
*RES
1 *1393:Q *272:8 10.605 
2 *272:8 *1319:A1 4.725 
3 *272:8 *1250:B2 7.85625 
*END

*D_NET *273 0.0020589
*CONN
*I *1320:A1 I *D sky130_fd_sc_hd__mux2_1
*I *1258:B2 I *D sky130_fd_sc_hd__a221o_1
*I *1394:Q O *D sky130_fd_sc_hd__dfrtp_1
*CAP
1 *1320:A1 0.000258455
2 *1258:B2 6.04302e-05
3 *1394:Q 0.000208102
4 *273:6 0.000526987
5 *1258:B1 *1258:B2 0.000160651
6 *1258:C1 *1258:B2 6.03947e-06
7 *1316:A0 *1258:B2 6.03947e-06
8 *1394:D *1320:A1 4.29016e-05
9 *1394:RESET_B *1320:A1 9.02174e-05
10 *92:27 *1258:B2 0.000183738
11 *184:72 *1320:A1 0.000242354
12 *194:87 *1320:A1 0.000272984
*RES
1 *1394:Q *273:6 4.465 
2 *273:6 *1258:B2 7.85375 
3 *273:6 *1320:A1 7.915 
*END

*D_NET *274 0.00137916
*CONN
*I *1321:A1 I *D sky130_fd_sc_hd__mux2_1
*I *1273:B2 I *D sky130_fd_sc_hd__a221o_1
*I *1395:Q O *D sky130_fd_sc_hd__dfrtp_1
*CAP
1 *1321:A1 0.000362752
2 *1273:B2 9.99785e-06
3 *1395:Q 9.73074e-05
4 *274:12 0.000470057
5 *1273:A1 *274:12 7.17811e-05
6 *1273:A2 *1321:A1 3.69993e-05
7 *1273:B1 *1273:B2 2.49381e-05
8 *1273:B1 *1321:A1 3.1226e-05
9 *1273:C1 *274:12 7.3664e-05
10 *1274:D1 *1321:A1 0.000170396
11 *207:64 *274:12 3.00381e-05
*RES
1 *1395:Q *274:12 7.685 
2 *274:12 *1273:B2 1.84 
3 *274:12 *1321:A1 7.585 
*END

*D_NET *275 0.0018356
*CONN
*I *1237:B2 I *D sky130_fd_sc_hd__a22o_1
*I *1323:A1 I *D sky130_fd_sc_hd__mux2_1
*I *1396:Q O *D sky130_fd_sc_hd__dfrtp_1
*CAP
1 *1237:B2 0.000116103
2 *1323:A1 0.000481261
3 *1396:Q 3.32299e-05
4 *275:8 0.000630594
5 *1237:A1 *1237:B2 6.23462e-05
6 *1237:A1 *1323:A1 4.11194e-05
7 *1240:B2 *1237:B2 0
8 *1323:A0 *1323:A1 4.78613e-05
9 *1323:A0 *275:8 0.000201503
10 *1396:RESET_B *275:8 0.000119631
11 *1404:D *1323:A1 0
12 *1412:CLK *1323:A1 1.7413e-05
13 *1412:D *1323:A1 0
14 *107:30 *1237:B2 0
15 *187:70 *1323:A1 8.45369e-05
16 *223:12 *1323:A1 0
*RES
1 *1396:Q *275:8 5.43 
2 *275:8 *1323:A1 10.155 
3 *275:8 *1237:B2 5.745 
*END

*D_NET *276 0.00070351
*CONN
*I *1246:A1 I *D sky130_fd_sc_hd__a22o_1
*I *1324:A1 I *D sky130_fd_sc_hd__mux2_1
*I *1397:Q O *D sky130_fd_sc_hd__dfrtp_1
*CAP
1 *1246:A1 9.2899e-05
2 *1324:A1 7.05106e-05
3 *1397:Q 0
4 *276:4 0.00016341
5 *109:14 *1246:A1 6.97118e-05
6 *109:14 *1324:A1 2.49909e-05
7 *109:25 *1246:A1 2.30292e-05
8 *173:46 *1324:A1 0.000164679
9 *178:59 *1324:A1 9.428e-05
*RES
1 *1397:Q *276:4 1.6 
2 *276:4 *1324:A1 7.94 
3 *276:4 *1246:A1 3.445 
*END

*D_NET *277 0.00179063
*CONN
*I *1261:A1 I *D sky130_fd_sc_hd__a22o_1
*I *1325:A1 I *D sky130_fd_sc_hd__mux2_1
*I *1398:Q O *D sky130_fd_sc_hd__dfrtp_1
*CAP
1 *1261:A1 0.000306349
2 *1325:A1 0.000174116
3 *1398:Q 0
4 *277:4 0.000480464
5 *1262:C1 *1261:A1 1.23437e-05
6 *1325:A0 *1325:A1 0.000164679
7 *1350:A0 *1325:A1 3.09233e-05
8 *1350:S *1261:A1 0
9 *1398:RESET_B *1261:A1 7.06865e-05
10 *1398:RESET_B *1325:A1 0
11 *1418:RESET_B *1261:A1 0.000187766
12 *171:8 *1261:A1 0.000153217
13 *171:8 *1325:A1 0.0001249
14 *171:36 *1261:A1 8.51862e-05
*RES
1 *1398:Q *277:4 1.6 
2 *277:4 *1325:A1 8.885 
3 *277:4 *1261:A1 10.94 
*END

*D_NET *278 0.00133815
*CONN
*I *1272:A1 I *D sky130_fd_sc_hd__a22o_1
*I *1326:A1 I *D sky130_fd_sc_hd__mux2_1
*I *1399:Q O *D sky130_fd_sc_hd__dfrtp_1
*CAP
1 *1272:A1 4.83772e-05
2 *1326:A1 0.000255561
3 *1399:Q 0.00010531
4 *278:6 0.000409248
5 *1272:B2 *1326:A1 3.79532e-05
6 *1324:S *1326:A1 4.87479e-05
7 *107:26 *1272:A1 0.000208484
8 *109:29 *1272:A1 0.000208484
9 *153:42 *1326:A1 1.59888e-05
*RES
1 *1399:Q *278:6 2.74 
2 *278:6 *1326:A1 8.81 
3 *278:6 *1272:A1 8 
*END
