*SPEF "ieee 1481-1999"
*DESIGN "regfile"
*DATE "09:09:43 Wednesday November 12, 2025"
*VENDOR "The OpenROAD Project"
*PROGRAM "OpenROAD"
*VERSION "v2.0-16235-gedf00dff9"
*DESIGN_FLOW "NAME_SCOPE LOCAL" "PIN_CAP NONE"
*DIVIDER /
*DELIMITER :
*BUS_DELIMITER []
*T_UNIT 1 NS
*C_UNIT 1 PF
*R_UNIT 1 OHM
*L_UNIT 1 HENRY

*NAME_MAP
*1 addr[0]
*2 addr[1]
*3 addr[2]
*4 addr[3]
*5 clk
*6 nrst
*7 rdata[0]
*8 rdata[1]
*9 rdata[2]
*10 rdata[3]
*13 wdata[0]
*14 wdata[1]
*15 wdata[2]
*16 wdata[3]
*17 we
*18 _000_
*19 _001_
*20 _002_
*21 _003_
*22 _004_
*23 _005_
*24 _006_
*25 _007_
*26 _008_
*27 _009_
*28 _010_
*29 _011_
*30 _012_
*31 _013_
*32 _014_
*33 _015_
*34 _016_
*35 _017_
*36 _018_
*37 _019_
*38 _020_
*39 _021_
*40 _022_
*41 _023_
*42 _024_
*43 _025_
*44 _026_
*45 _027_
*46 _028_
*47 _029_
*48 _030_
*49 _031_
*50 _032_
*51 _033_
*52 _034_
*53 _035_
*54 _036_
*55 _037_
*56 _038_
*57 _039_
*58 _040_
*59 _041_
*60 _042_
*61 _043_
*62 _044_
*63 _045_
*64 _046_
*65 _047_
*66 _048_
*67 _049_
*68 _050_
*69 _051_
*70 _052_
*71 _053_
*72 _054_
*73 _055_
*74 _056_
*75 _057_
*76 _058_
*77 _059_
*78 _060_
*79 _061_
*80 _062_
*81 _063_
*82 _064_
*83 _065_
*84 _066_
*85 _067_
*86 _068_
*87 _069_
*88 _070_
*89 _071_
*90 _072_
*91 _073_
*92 _074_
*93 _075_
*94 _076_
*95 _077_
*96 _078_
*97 _079_
*98 _080_
*99 _081_
*100 _082_
*101 _083_
*102 _084_
*103 _085_
*104 _086_
*105 _087_
*106 _088_
*107 _089_
*108 _090_
*109 _091_
*110 _092_
*111 _093_
*112 _094_
*113 _095_
*114 _096_
*115 _097_
*116 _098_
*117 _099_
*118 _100_
*119 _101_
*120 _102_
*121 _103_
*122 _104_
*123 _105_
*124 _106_
*125 _107_
*126 _108_
*127 _109_
*128 _110_
*129 _111_
*130 _112_
*131 _113_
*132 _114_
*133 _115_
*134 _116_
*135 _117_
*136 _118_
*137 _119_
*138 _120_
*139 _121_
*140 _122_
*141 _123_
*142 _124_
*143 _125_
*144 _126_
*145 _127_
*146 _128_
*147 _129_
*148 _130_
*149 _131_
*150 _132_
*151 _133_
*152 _134_
*153 _135_
*154 _136_
*155 _137_
*156 _138_
*157 _139_
*158 _140_
*159 net1
*160 net10
*161 net11
*162 net12
*163 net13
*164 net14
*165 net15
*166 net16
*167 net17
*168 net18
*169 net19
*170 net2
*171 net20
*172 net21
*173 net22
*174 net23
*175 net24
*176 net25
*177 net26
*178 net27
*179 net28
*180 net29
*181 net3
*182 net30
*183 net31
*184 net32
*185 net33
*186 net34
*187 net35
*188 net36
*189 net37
*190 net38
*191 net39
*192 net4
*193 net40
*194 net41
*195 net42
*196 net43
*197 net44
*198 net45
*199 net46
*200 net47
*201 net48
*202 net49
*203 net5
*204 net50
*205 net51
*206 net52
*207 net53
*208 net54
*209 net55
*210 net56
*211 net6
*212 net7
*213 net8
*214 net9
*215 regs\[0\]\[0\]
*216 regs\[0\]\[1\]
*217 regs\[0\]\[2\]
*218 regs\[0\]\[3\]
*219 regs\[10\]\[0\]
*220 regs\[10\]\[1\]
*221 regs\[10\]\[2\]
*222 regs\[10\]\[3\]
*223 regs\[11\]\[0\]
*224 regs\[11\]\[1\]
*225 regs\[11\]\[2\]
*226 regs\[11\]\[3\]
*227 regs\[12\]\[0\]
*228 regs\[12\]\[1\]
*229 regs\[12\]\[2\]
*230 regs\[12\]\[3\]
*231 regs\[13\]\[0\]
*232 regs\[13\]\[1\]
*233 regs\[13\]\[2\]
*234 regs\[13\]\[3\]
*235 regs\[14\]\[0\]
*236 regs\[14\]\[1\]
*237 regs\[14\]\[2\]
*238 regs\[14\]\[3\]
*239 regs\[15\]\[0\]
*240 regs\[15\]\[1\]
*241 regs\[15\]\[2\]
*242 regs\[15\]\[3\]
*243 regs\[1\]\[0\]
*244 regs\[1\]\[1\]
*245 regs\[1\]\[2\]
*246 regs\[1\]\[3\]
*247 regs\[2\]\[0\]
*248 regs\[2\]\[1\]
*249 regs\[2\]\[2\]
*250 regs\[2\]\[3\]
*251 regs\[3\]\[0\]
*252 regs\[3\]\[1\]
*253 regs\[3\]\[2\]
*254 regs\[3\]\[3\]
*255 regs\[4\]\[0\]
*256 regs\[4\]\[1\]
*257 regs\[4\]\[2\]
*258 regs\[4\]\[3\]
*259 regs\[5\]\[0\]
*260 regs\[5\]\[1\]
*261 regs\[5\]\[2\]
*262 regs\[5\]\[3\]
*263 regs\[6\]\[0\]
*264 regs\[6\]\[1\]
*265 regs\[6\]\[2\]
*266 regs\[6\]\[3\]
*267 regs\[7\]\[0\]
*268 regs\[7\]\[1\]
*269 regs\[7\]\[2\]
*270 regs\[7\]\[3\]
*271 regs\[8\]\[0\]
*272 regs\[8\]\[1\]
*273 regs\[8\]\[2\]
*274 regs\[8\]\[3\]
*275 regs\[9\]\[0\]
*276 regs\[9\]\[1\]
*277 regs\[9\]\[2\]
*278 regs\[9\]\[3\]
*279 FILLER_0_109
*280 FILLER_0_113
*281 FILLER_0_116
*282 FILLER_0_119
*283 FILLER_0_12
*284 FILLER_0_122
*285 FILLER_0_125
*286 FILLER_0_128
*287 FILLER_0_131
*288 FILLER_0_134
*289 FILLER_0_137
*290 FILLER_0_141
*291 FILLER_0_144
*292 FILLER_0_147
*293 FILLER_0_15
*294 FILLER_0_150
*295 FILLER_0_153
*296 FILLER_0_156
*297 FILLER_0_159
*298 FILLER_0_162
*299 FILLER_0_165
*300 FILLER_0_169
*301 FILLER_0_18
*302 FILLER_0_21
*303 FILLER_0_24
*304 FILLER_0_27
*305 FILLER_0_29
*306 FILLER_0_3
*307 FILLER_0_32
*308 FILLER_0_35
*309 FILLER_0_41
*310 FILLER_0_44
*311 FILLER_0_48
*312 FILLER_0_51
*313 FILLER_0_54
*314 FILLER_0_57
*315 FILLER_0_6
*316 FILLER_0_60
*317 FILLER_0_63
*318 FILLER_0_66
*319 FILLER_0_69
*320 FILLER_0_72
*321 FILLER_0_75
*322 FILLER_0_78
*323 FILLER_0_81
*324 FILLER_0_85
*325 FILLER_0_88
*326 FILLER_0_9
*327 FILLER_0_91
*328 FILLER_0_94
*329 FILLER_0_97
*330 FILLER_10_102
*331 FILLER_10_12
*332 FILLER_10_132
*333 FILLER_10_135
*334 FILLER_10_138
*335 FILLER_10_15
*336 FILLER_10_164
*337 FILLER_10_169
*338 FILLER_10_26
*339 FILLER_10_29
*340 FILLER_10_3
*341 FILLER_10_32
*342 FILLER_10_35
*343 FILLER_10_38
*344 FILLER_10_41
*345 FILLER_10_51
*346 FILLER_10_54
*347 FILLER_10_57
*348 FILLER_10_6
*349 FILLER_10_83
*350 FILLER_10_89
*351 FILLER_10_9
*352 FILLER_10_99
*353 FILLER_11_108
*354 FILLER_11_111
*355 FILLER_11_122
*356 FILLER_11_125
*357 FILLER_11_128
*358 FILLER_11_131
*359 FILLER_11_134
*360 FILLER_11_150
*361 FILLER_11_159
*362 FILLER_11_162
*363 FILLER_11_165
*364 FILLER_11_169
*365 FILLER_11_3
*366 FILLER_11_31
*367 FILLER_11_34
*368 FILLER_11_37
*369 FILLER_11_40
*370 FILLER_11_43
*371 FILLER_11_46
*372 FILLER_11_49
*373 FILLER_11_52
*374 FILLER_11_55
*375 FILLER_11_57
*376 FILLER_11_60
*377 FILLER_11_63
*378 FILLER_11_66
*379 FILLER_11_69
*380 FILLER_11_72
*381 FILLER_11_75
*382 FILLER_11_78
*383 FILLER_11_81
*384 FILLER_11_84
*385 FILLER_11_87
*386 FILLER_11_90
*387 FILLER_11_93
*388 FILLER_11_96
*389 FILLER_11_99
*390 FILLER_12_103
*391 FILLER_12_106
*392 FILLER_12_109
*393 FILLER_12_112
*394 FILLER_12_115
*395 FILLER_12_126
*396 FILLER_12_129
*397 FILLER_12_132
*398 FILLER_12_135
*399 FILLER_12_138
*400 FILLER_12_150
*401 FILLER_12_153
*402 FILLER_12_165
*403 FILLER_12_168
*404 FILLER_12_171
*405 FILLER_12_27
*406 FILLER_12_3
*407 FILLER_12_43
*408 FILLER_12_46
*409 FILLER_12_49
*410 FILLER_12_81
*411 FILLER_12_92
*412 FILLER_13_133
*413 FILLER_13_136
*414 FILLER_13_146
*415 FILLER_13_169
*416 FILLER_13_30
*417 FILLER_13_52
*418 FILLER_13_55
*419 FILLER_13_83
*420 FILLER_13_86
*421 FILLER_14_104
*422 FILLER_14_107
*423 FILLER_14_11
*424 FILLER_14_110
*425 FILLER_14_130
*426 FILLER_14_133
*427 FILLER_14_136
*428 FILLER_14_139
*429 FILLER_14_14
*430 FILLER_14_161
*431 FILLER_14_164
*432 FILLER_14_17
*433 FILLER_14_24
*434 FILLER_14_27
*435 FILLER_14_29
*436 FILLER_14_32
*437 FILLER_14_35
*438 FILLER_14_46
*439 FILLER_14_49
*440 FILLER_14_52
*441 FILLER_14_55
*442 FILLER_14_58
*443 FILLER_14_6
*444 FILLER_14_73
*445 FILLER_14_83
*446 FILLER_15_113
*447 FILLER_15_116
*448 FILLER_15_119
*449 FILLER_15_12
*450 FILLER_15_122
*451 FILLER_15_125
*452 FILLER_15_128
*453 FILLER_15_131
*454 FILLER_15_134
*455 FILLER_15_149
*456 FILLER_15_15
*457 FILLER_15_167
*458 FILLER_15_169
*459 FILLER_15_18
*460 FILLER_15_39
*461 FILLER_15_51
*462 FILLER_15_54
*463 FILLER_15_57
*464 FILLER_15_6
*465 FILLER_15_9
*466 FILLER_15_92
*467 FILLER_15_95
*468 FILLER_16_101
*469 FILLER_16_104
*470 FILLER_16_107
*471 FILLER_16_110
*472 FILLER_16_12
*473 FILLER_16_131
*474 FILLER_16_134
*475 FILLER_16_137
*476 FILLER_16_15
*477 FILLER_16_150
*478 FILLER_16_18
*479 FILLER_16_21
*480 FILLER_16_24
*481 FILLER_16_27
*482 FILLER_16_29
*483 FILLER_16_40
*484 FILLER_16_55
*485 FILLER_16_58
*486 FILLER_16_6
*487 FILLER_16_63
*488 FILLER_16_76
*489 FILLER_16_79
*490 FILLER_16_82
*491 FILLER_16_9
*492 FILLER_16_98
*493 FILLER_17_122
*494 FILLER_17_125
*495 FILLER_17_163
*496 FILLER_17_169
*497 FILLER_17_3
*498 FILLER_17_39
*499 FILLER_17_47
*500 FILLER_17_50
*501 FILLER_17_53
*502 FILLER_17_6
*503 FILLER_17_66
*504 FILLER_17_69
*505 FILLER_17_9
*506 FILLER_18_102
*507 FILLER_18_105
*508 FILLER_18_108
*509 FILLER_18_111
*510 FILLER_18_114
*511 FILLER_18_117
*512 FILLER_18_12
*513 FILLER_18_128
*514 FILLER_18_131
*515 FILLER_18_134
*516 FILLER_18_137
*517 FILLER_18_15
*518 FILLER_18_170
*519 FILLER_18_18
*520 FILLER_18_21
*521 FILLER_18_24
*522 FILLER_18_27
*523 FILLER_18_29
*524 FILLER_18_3
*525 FILLER_18_32
*526 FILLER_18_35
*527 FILLER_18_38
*528 FILLER_18_41
*529 FILLER_18_44
*530 FILLER_18_6
*531 FILLER_18_66
*532 FILLER_18_69
*533 FILLER_18_72
*534 FILLER_18_75
*535 FILLER_18_78
*536 FILLER_18_81
*537 FILLER_18_9
*538 FILLER_19_107
*539 FILLER_19_110
*540 FILLER_19_113
*541 FILLER_19_12
*542 FILLER_19_148
*543 FILLER_19_15
*544 FILLER_19_151
*545 FILLER_19_154
*546 FILLER_19_157
*547 FILLER_19_160
*548 FILLER_19_163
*549 FILLER_19_166
*550 FILLER_19_169
*551 FILLER_19_3
*552 FILLER_19_6
*553 FILLER_19_66
*554 FILLER_19_77
*555 FILLER_19_80
*556 FILLER_19_87
*557 FILLER_19_9
*558 FILLER_19_97
*559 FILLER_1_113
*560 FILLER_1_116
*561 FILLER_1_119
*562 FILLER_1_12
*563 FILLER_1_129
*564 FILLER_1_132
*565 FILLER_1_135
*566 FILLER_1_138
*567 FILLER_1_141
*568 FILLER_1_144
*569 FILLER_1_147
*570 FILLER_1_15
*571 FILLER_1_150
*572 FILLER_1_153
*573 FILLER_1_156
*574 FILLER_1_159
*575 FILLER_1_162
*576 FILLER_1_165
*577 FILLER_1_169
*578 FILLER_1_18
*579 FILLER_1_21
*580 FILLER_1_24
*581 FILLER_1_27
*582 FILLER_1_3
*583 FILLER_1_30
*584 FILLER_1_33
*585 FILLER_1_6
*586 FILLER_1_66
*587 FILLER_1_69
*588 FILLER_1_72
*589 FILLER_1_75
*590 FILLER_1_78
*591 FILLER_1_88
*592 FILLER_1_9
*593 FILLER_1_91
*594 FILLER_20_105
*595 FILLER_20_12
*596 FILLER_20_128
*597 FILLER_20_131
*598 FILLER_20_134
*599 FILLER_20_137
*600 FILLER_20_150
*601 FILLER_20_158
*602 FILLER_20_169
*603 FILLER_20_29
*604 FILLER_20_3
*605 FILLER_20_40
*606 FILLER_20_43
*607 FILLER_20_46
*608 FILLER_20_49
*609 FILLER_20_52
*610 FILLER_20_55
*611 FILLER_20_58
*612 FILLER_20_6
*613 FILLER_20_81
*614 FILLER_20_9
*615 FILLER_21_100
*616 FILLER_21_103
*617 FILLER_21_109
*618 FILLER_21_122
*619 FILLER_21_125
*620 FILLER_21_128
*621 FILLER_21_131
*622 FILLER_21_134
*623 FILLER_21_137
*624 FILLER_21_146
*625 FILLER_21_169
*626 FILLER_21_29
*627 FILLER_21_3
*628 FILLER_21_32
*629 FILLER_21_35
*630 FILLER_21_38
*631 FILLER_21_46
*632 FILLER_21_49
*633 FILLER_21_52
*634 FILLER_21_55
*635 FILLER_21_6
*636 FILLER_21_66
*637 FILLER_21_69
*638 FILLER_21_72
*639 FILLER_21_94
*640 FILLER_21_97
*641 FILLER_22_102
*642 FILLER_22_12
*643 FILLER_22_132
*644 FILLER_22_135
*645 FILLER_22_138
*646 FILLER_22_146
*647 FILLER_22_149
*648 FILLER_22_15
*649 FILLER_22_152
*650 FILLER_22_167
*651 FILLER_22_170
*652 FILLER_22_18
*653 FILLER_22_21
*654 FILLER_22_24
*655 FILLER_22_27
*656 FILLER_22_3
*657 FILLER_22_39
*658 FILLER_22_42
*659 FILLER_22_6
*660 FILLER_22_70
*661 FILLER_22_73
*662 FILLER_22_76
*663 FILLER_22_79
*664 FILLER_22_82
*665 FILLER_22_9
*666 FILLER_23_100
*667 FILLER_23_103
*668 FILLER_23_106
*669 FILLER_23_109
*670 FILLER_23_113
*671 FILLER_23_116
*672 FILLER_23_12
*673 FILLER_23_138
*674 FILLER_23_15
*675 FILLER_23_169
*676 FILLER_23_18
*677 FILLER_23_3
*678 FILLER_23_55
*679 FILLER_23_6
*680 FILLER_23_61
*681 FILLER_23_64
*682 FILLER_23_67
*683 FILLER_23_70
*684 FILLER_23_73
*685 FILLER_23_85
*686 FILLER_23_88
*687 FILLER_23_9
*688 FILLER_23_91
*689 FILLER_23_94
*690 FILLER_23_97
*691 FILLER_24_102
*692 FILLER_24_105
*693 FILLER_24_114
*694 FILLER_24_12
*695 FILLER_24_122
*696 FILLER_24_125
*697 FILLER_24_128
*698 FILLER_24_131
*699 FILLER_24_134
*700 FILLER_24_137
*701 FILLER_24_141
*702 FILLER_24_144
*703 FILLER_24_147
*704 FILLER_24_15
*705 FILLER_24_166
*706 FILLER_24_18
*707 FILLER_24_21
*708 FILLER_24_24
*709 FILLER_24_27
*710 FILLER_24_29
*711 FILLER_24_3
*712 FILLER_24_32
*713 FILLER_24_43
*714 FILLER_24_46
*715 FILLER_24_49
*716 FILLER_24_6
*717 FILLER_24_64
*718 FILLER_24_76
*719 FILLER_24_79
*720 FILLER_24_82
*721 FILLER_24_9
*722 FILLER_24_94
*723 FILLER_25_101
*724 FILLER_25_104
*725 FILLER_25_107
*726 FILLER_25_110
*727 FILLER_25_113
*728 FILLER_25_116
*729 FILLER_25_119
*730 FILLER_25_12
*731 FILLER_25_122
*732 FILLER_25_134
*733 FILLER_25_137
*734 FILLER_25_140
*735 FILLER_25_15
*736 FILLER_25_162
*737 FILLER_25_165
*738 FILLER_25_169
*739 FILLER_25_18
*740 FILLER_25_21
*741 FILLER_25_3
*742 FILLER_25_45
*743 FILLER_25_48
*744 FILLER_25_51
*745 FILLER_25_54
*746 FILLER_25_6
*747 FILLER_25_77
*748 FILLER_25_9
*749 FILLER_25_98
*750 FILLER_26_101
*751 FILLER_26_12
*752 FILLER_26_141
*753 FILLER_26_144
*754 FILLER_26_147
*755 FILLER_26_15
*756 FILLER_26_150
*757 FILLER_26_153
*758 FILLER_26_156
*759 FILLER_26_159
*760 FILLER_26_162
*761 FILLER_26_165
*762 FILLER_26_168
*763 FILLER_26_171
*764 FILLER_26_18
*765 FILLER_26_21
*766 FILLER_26_24
*767 FILLER_26_27
*768 FILLER_26_33
*769 FILLER_26_36
*770 FILLER_26_39
*771 FILLER_26_42
*772 FILLER_26_45
*773 FILLER_26_48
*774 FILLER_26_51
*775 FILLER_26_54
*776 FILLER_26_6
*777 FILLER_26_76
*778 FILLER_26_79
*779 FILLER_26_85
*780 FILLER_26_9
*781 FILLER_26_95
*782 FILLER_26_98
*783 FILLER_27_12
*784 FILLER_27_133
*785 FILLER_27_136
*786 FILLER_27_139
*787 FILLER_27_142
*788 FILLER_27_145
*789 FILLER_27_148
*790 FILLER_27_15
*791 FILLER_27_151
*792 FILLER_27_154
*793 FILLER_27_157
*794 FILLER_27_160
*795 FILLER_27_163
*796 FILLER_27_166
*797 FILLER_27_169
*798 FILLER_27_18
*799 FILLER_27_21
*800 FILLER_27_24
*801 FILLER_27_27
*802 FILLER_27_3
*803 FILLER_27_30
*804 FILLER_27_33
*805 FILLER_27_36
*806 FILLER_27_39
*807 FILLER_27_42
*808 FILLER_27_45
*809 FILLER_27_48
*810 FILLER_27_51
*811 FILLER_27_54
*812 FILLER_27_57
*813 FILLER_27_6
*814 FILLER_27_60
*815 FILLER_27_9
*816 FILLER_28_100
*817 FILLER_28_103
*818 FILLER_28_106
*819 FILLER_28_109
*820 FILLER_28_113
*821 FILLER_28_119
*822 FILLER_28_12
*823 FILLER_28_126
*824 FILLER_28_129
*825 FILLER_28_132
*826 FILLER_28_135
*827 FILLER_28_138
*828 FILLER_28_141
*829 FILLER_28_144
*830 FILLER_28_147
*831 FILLER_28_15
*832 FILLER_28_150
*833 FILLER_28_153
*834 FILLER_28_156
*835 FILLER_28_159
*836 FILLER_28_162
*837 FILLER_28_165
*838 FILLER_28_169
*839 FILLER_28_18
*840 FILLER_28_21
*841 FILLER_28_24
*842 FILLER_28_27
*843 FILLER_28_29
*844 FILLER_28_3
*845 FILLER_28_32
*846 FILLER_28_35
*847 FILLER_28_38
*848 FILLER_28_41
*849 FILLER_28_44
*850 FILLER_28_47
*851 FILLER_28_50
*852 FILLER_28_53
*853 FILLER_28_57
*854 FILLER_28_6
*855 FILLER_28_60
*856 FILLER_28_63
*857 FILLER_28_66
*858 FILLER_28_69
*859 FILLER_28_72
*860 FILLER_28_75
*861 FILLER_28_78
*862 FILLER_28_81
*863 FILLER_28_85
*864 FILLER_28_88
*865 FILLER_28_9
*866 FILLER_28_91
*867 FILLER_28_94
*868 FILLER_28_97
*869 FILLER_2_111
*870 FILLER_2_114
*871 FILLER_2_12
*872 FILLER_2_135
*873 FILLER_2_138
*874 FILLER_2_15
*875 FILLER_2_150
*876 FILLER_2_153
*877 FILLER_2_156
*878 FILLER_2_159
*879 FILLER_2_162
*880 FILLER_2_165
*881 FILLER_2_168
*882 FILLER_2_18
*883 FILLER_2_21
*884 FILLER_2_24
*885 FILLER_2_27
*886 FILLER_2_29
*887 FILLER_2_3
*888 FILLER_2_32
*889 FILLER_2_6
*890 FILLER_2_9
*891 FILLER_3_109
*892 FILLER_3_113
*893 FILLER_3_116
*894 FILLER_3_12
*895 FILLER_3_128
*896 FILLER_3_131
*897 FILLER_3_134
*898 FILLER_3_15
*899 FILLER_3_156
*900 FILLER_3_159
*901 FILLER_3_162
*902 FILLER_3_165
*903 FILLER_3_169
*904 FILLER_3_3
*905 FILLER_3_47
*906 FILLER_3_50
*907 FILLER_3_53
*908 FILLER_3_6
*909 FILLER_3_66
*910 FILLER_3_69
*911 FILLER_3_72
*912 FILLER_3_86
*913 FILLER_3_9
*914 FILLER_4_105
*915 FILLER_4_108
*916 FILLER_4_111
*917 FILLER_4_132
*918 FILLER_4_135
*919 FILLER_4_138
*920 FILLER_4_141
*921 FILLER_4_144
*922 FILLER_4_159
*923 FILLER_4_162
*924 FILLER_4_165
*925 FILLER_4_168
*926 FILLER_4_27
*927 FILLER_4_3
*928 FILLER_4_33
*929 FILLER_4_36
*930 FILLER_4_44
*931 FILLER_4_47
*932 FILLER_4_50
*933 FILLER_4_58
*934 FILLER_4_6
*935 FILLER_4_61
*936 FILLER_4_66
*937 FILLER_4_69
*938 FILLER_4_72
*939 FILLER_4_83
*940 FILLER_4_85
*941 FILLER_4_88
*942 FILLER_5_108
*943 FILLER_5_111
*944 FILLER_5_113
*945 FILLER_5_12
*946 FILLER_5_121
*947 FILLER_5_124
*948 FILLER_5_127
*949 FILLER_5_130
*950 FILLER_5_133
*951 FILLER_5_136
*952 FILLER_5_15
*953 FILLER_5_156
*954 FILLER_5_159
*955 FILLER_5_162
*956 FILLER_5_165
*957 FILLER_5_169
*958 FILLER_5_25
*959 FILLER_5_28
*960 FILLER_5_3
*961 FILLER_5_31
*962 FILLER_5_34
*963 FILLER_5_65
*964 FILLER_5_87
*965 FILLER_5_9
*966 FILLER_5_90
*967 FILLER_6_110
*968 FILLER_6_113
*969 FILLER_6_116
*970 FILLER_6_119
*971 FILLER_6_129
*972 FILLER_6_132
*973 FILLER_6_135
*974 FILLER_6_138
*975 FILLER_6_170
*976 FILLER_6_24
*977 FILLER_6_27
*978 FILLER_6_3
*979 FILLER_6_36
*980 FILLER_6_50
*981 FILLER_6_53
*982 FILLER_6_56
*983 FILLER_6_59
*984 FILLER_6_67
*985 FILLER_6_70
*986 FILLER_6_73
*987 FILLER_6_76
*988 FILLER_6_79
*989 FILLER_6_82
*990 FILLER_6_85
*991 FILLER_6_88
*992 FILLER_7_104
*993 FILLER_7_107
*994 FILLER_7_110
*995 FILLER_7_113
*996 FILLER_7_12
*997 FILLER_7_134
*998 FILLER_7_137
*999 FILLER_7_140
*1000 FILLER_7_15
*1001 FILLER_7_18
*1002 FILLER_7_3
*1003 FILLER_7_48
*1004 FILLER_7_51
*1005 FILLER_7_54
*1006 FILLER_7_6
*1007 FILLER_7_66
*1008 FILLER_7_69
*1009 FILLER_7_9
*1010 FILLER_7_94
*1011 FILLER_8_101
*1012 FILLER_8_104
*1013 FILLER_8_107
*1014 FILLER_8_110
*1015 FILLER_8_113
*1016 FILLER_8_116
*1017 FILLER_8_119
*1018 FILLER_8_12
*1019 FILLER_8_122
*1020 FILLER_8_132
*1021 FILLER_8_135
*1022 FILLER_8_138
*1023 FILLER_8_141
*1024 FILLER_8_144
*1025 FILLER_8_147
*1026 FILLER_8_15
*1027 FILLER_8_164
*1028 FILLER_8_167
*1029 FILLER_8_170
*1030 FILLER_8_25
*1031 FILLER_8_29
*1032 FILLER_8_3
*1033 FILLER_8_32
*1034 FILLER_8_35
*1035 FILLER_8_46
*1036 FILLER_8_6
*1037 FILLER_8_68
*1038 FILLER_8_71
*1039 FILLER_8_74
*1040 FILLER_8_77
*1041 FILLER_8_80
*1042 FILLER_8_83
*1043 FILLER_8_9
*1044 FILLER_9_103
*1045 FILLER_9_106
*1046 FILLER_9_109
*1047 FILLER_9_113
*1048 FILLER_9_116
*1049 FILLER_9_137
*1050 FILLER_9_23
*1051 FILLER_9_26
*1052 FILLER_9_29
*1053 FILLER_9_51
*1054 FILLER_9_54
*1055 FILLER_9_57
*1056 FILLER_9_60
*1057 FILLER_9_63
*1058 FILLER_9_66
*1059 FILLER_9_81
*1060 PHY_EDGE_ROW_0_Left_29
*1061 PHY_EDGE_ROW_0_Right_0
*1062 PHY_EDGE_ROW_10_Left_39
*1063 PHY_EDGE_ROW_10_Right_10
*1064 PHY_EDGE_ROW_11_Left_40
*1065 PHY_EDGE_ROW_11_Right_11
*1066 PHY_EDGE_ROW_12_Left_41
*1067 PHY_EDGE_ROW_12_Right_12
*1068 PHY_EDGE_ROW_13_Left_42
*1069 PHY_EDGE_ROW_13_Right_13
*1070 PHY_EDGE_ROW_14_Left_43
*1071 PHY_EDGE_ROW_14_Right_14
*1072 PHY_EDGE_ROW_15_Left_44
*1073 PHY_EDGE_ROW_15_Right_15
*1074 PHY_EDGE_ROW_16_Left_45
*1075 PHY_EDGE_ROW_16_Right_16
*1076 PHY_EDGE_ROW_17_Left_46
*1077 PHY_EDGE_ROW_17_Right_17
*1078 PHY_EDGE_ROW_18_Left_47
*1079 PHY_EDGE_ROW_18_Right_18
*1080 PHY_EDGE_ROW_19_Left_48
*1081 PHY_EDGE_ROW_19_Right_19
*1082 PHY_EDGE_ROW_1_Left_30
*1083 PHY_EDGE_ROW_1_Right_1
*1084 PHY_EDGE_ROW_20_Left_49
*1085 PHY_EDGE_ROW_20_Right_20
*1086 PHY_EDGE_ROW_21_Left_50
*1087 PHY_EDGE_ROW_21_Right_21
*1088 PHY_EDGE_ROW_22_Left_51
*1089 PHY_EDGE_ROW_22_Right_22
*1090 PHY_EDGE_ROW_23_Left_52
*1091 PHY_EDGE_ROW_23_Right_23
*1092 PHY_EDGE_ROW_24_Left_53
*1093 PHY_EDGE_ROW_24_Right_24
*1094 PHY_EDGE_ROW_25_Left_54
*1095 PHY_EDGE_ROW_25_Right_25
*1096 PHY_EDGE_ROW_26_Left_55
*1097 PHY_EDGE_ROW_26_Right_26
*1098 PHY_EDGE_ROW_27_Left_56
*1099 PHY_EDGE_ROW_27_Right_27
*1100 PHY_EDGE_ROW_28_Left_57
*1101 PHY_EDGE_ROW_28_Right_28
*1102 PHY_EDGE_ROW_2_Left_31
*1103 PHY_EDGE_ROW_2_Right_2
*1104 PHY_EDGE_ROW_3_Left_32
*1105 PHY_EDGE_ROW_3_Right_3
*1106 PHY_EDGE_ROW_4_Left_33
*1107 PHY_EDGE_ROW_4_Right_4
*1108 PHY_EDGE_ROW_5_Left_34
*1109 PHY_EDGE_ROW_5_Right_5
*1110 PHY_EDGE_ROW_6_Left_35
*1111 PHY_EDGE_ROW_6_Right_6
*1112 PHY_EDGE_ROW_7_Left_36
*1113 PHY_EDGE_ROW_7_Right_7
*1114 PHY_EDGE_ROW_8_Left_37
*1115 PHY_EDGE_ROW_8_Right_8
*1116 PHY_EDGE_ROW_9_Left_38
*1117 PHY_EDGE_ROW_9_Right_9
*1118 TAP_TAPCELL_ROW_0_58
*1119 TAP_TAPCELL_ROW_0_59
*1120 TAP_TAPCELL_ROW_0_60
*1121 TAP_TAPCELL_ROW_0_61
*1122 TAP_TAPCELL_ROW_0_62
*1123 TAP_TAPCELL_ROW_0_63
*1124 TAP_TAPCELL_ROW_10_91
*1125 TAP_TAPCELL_ROW_10_92
*1126 TAP_TAPCELL_ROW_10_93
*1127 TAP_TAPCELL_ROW_11_94
*1128 TAP_TAPCELL_ROW_11_95
*1129 TAP_TAPCELL_ROW_11_96
*1130 TAP_TAPCELL_ROW_12_97
*1131 TAP_TAPCELL_ROW_12_98
*1132 TAP_TAPCELL_ROW_12_99
*1133 TAP_TAPCELL_ROW_13_100
*1134 TAP_TAPCELL_ROW_13_101
*1135 TAP_TAPCELL_ROW_13_102
*1136 TAP_TAPCELL_ROW_14_103
*1137 TAP_TAPCELL_ROW_14_104
*1138 TAP_TAPCELL_ROW_14_105
*1139 TAP_TAPCELL_ROW_15_106
*1140 TAP_TAPCELL_ROW_15_107
*1141 TAP_TAPCELL_ROW_15_108
*1142 TAP_TAPCELL_ROW_16_109
*1143 TAP_TAPCELL_ROW_16_110
*1144 TAP_TAPCELL_ROW_16_111
*1145 TAP_TAPCELL_ROW_17_112
*1146 TAP_TAPCELL_ROW_17_113
*1147 TAP_TAPCELL_ROW_17_114
*1148 TAP_TAPCELL_ROW_18_115
*1149 TAP_TAPCELL_ROW_18_116
*1150 TAP_TAPCELL_ROW_18_117
*1151 TAP_TAPCELL_ROW_19_118
*1152 TAP_TAPCELL_ROW_19_119
*1153 TAP_TAPCELL_ROW_19_120
*1154 TAP_TAPCELL_ROW_1_64
*1155 TAP_TAPCELL_ROW_1_65
*1156 TAP_TAPCELL_ROW_1_66
*1157 TAP_TAPCELL_ROW_20_121
*1158 TAP_TAPCELL_ROW_20_122
*1159 TAP_TAPCELL_ROW_20_123
*1160 TAP_TAPCELL_ROW_21_124
*1161 TAP_TAPCELL_ROW_21_125
*1162 TAP_TAPCELL_ROW_21_126
*1163 TAP_TAPCELL_ROW_22_127
*1164 TAP_TAPCELL_ROW_22_128
*1165 TAP_TAPCELL_ROW_22_129
*1166 TAP_TAPCELL_ROW_23_130
*1167 TAP_TAPCELL_ROW_23_131
*1168 TAP_TAPCELL_ROW_23_132
*1169 TAP_TAPCELL_ROW_24_133
*1170 TAP_TAPCELL_ROW_24_134
*1171 TAP_TAPCELL_ROW_24_135
*1172 TAP_TAPCELL_ROW_25_136
*1173 TAP_TAPCELL_ROW_25_137
*1174 TAP_TAPCELL_ROW_25_138
*1175 TAP_TAPCELL_ROW_26_139
*1176 TAP_TAPCELL_ROW_26_140
*1177 TAP_TAPCELL_ROW_26_141
*1178 TAP_TAPCELL_ROW_27_142
*1179 TAP_TAPCELL_ROW_27_143
*1180 TAP_TAPCELL_ROW_27_144
*1181 TAP_TAPCELL_ROW_28_145
*1182 TAP_TAPCELL_ROW_28_146
*1183 TAP_TAPCELL_ROW_28_147
*1184 TAP_TAPCELL_ROW_28_148
*1185 TAP_TAPCELL_ROW_28_149
*1186 TAP_TAPCELL_ROW_28_150
*1187 TAP_TAPCELL_ROW_2_67
*1188 TAP_TAPCELL_ROW_2_68
*1189 TAP_TAPCELL_ROW_2_69
*1190 TAP_TAPCELL_ROW_3_70
*1191 TAP_TAPCELL_ROW_3_71
*1192 TAP_TAPCELL_ROW_3_72
*1193 TAP_TAPCELL_ROW_4_73
*1194 TAP_TAPCELL_ROW_4_74
*1195 TAP_TAPCELL_ROW_4_75
*1196 TAP_TAPCELL_ROW_5_76
*1197 TAP_TAPCELL_ROW_5_77
*1198 TAP_TAPCELL_ROW_5_78
*1199 TAP_TAPCELL_ROW_6_79
*1200 TAP_TAPCELL_ROW_6_80
*1201 TAP_TAPCELL_ROW_6_81
*1202 TAP_TAPCELL_ROW_7_82
*1203 TAP_TAPCELL_ROW_7_83
*1204 TAP_TAPCELL_ROW_7_84
*1205 TAP_TAPCELL_ROW_8_85
*1206 TAP_TAPCELL_ROW_8_86
*1207 TAP_TAPCELL_ROW_8_87
*1208 TAP_TAPCELL_ROW_9_88
*1209 TAP_TAPCELL_ROW_9_89
*1210 TAP_TAPCELL_ROW_9_90
*1211 _141_
*1212 _142_
*1213 _143_
*1214 _144_
*1215 _145_
*1216 _146_
*1217 _147_
*1218 _148_
*1219 _149_
*1220 _150_
*1221 _151_
*1222 _152_
*1223 _153_
*1224 _154_
*1225 _155_
*1226 _156_
*1227 _157_
*1228 _158_
*1229 _159_
*1230 _160_
*1231 _161_
*1232 _162_
*1233 _163_
*1234 _164_
*1235 _165_
*1236 _166_
*1237 _167_
*1238 _168_
*1239 _169_
*1240 _170_
*1241 _171_
*1242 _172_
*1243 _173_
*1244 _174_
*1245 _175_
*1246 _176_
*1247 _177_
*1248 _178_
*1249 _179_
*1250 _180_
*1251 _181_
*1252 _182_
*1253 _183_
*1254 _184_
*1255 _185_
*1256 _186_
*1257 _187_
*1258 _188_
*1259 _189_
*1260 _190_
*1261 _191_
*1262 _192_
*1263 _193_
*1264 _194_
*1265 _195_
*1266 _196_
*1267 _197_
*1268 _198_
*1269 _199_
*1270 _200_
*1271 _201_
*1272 _202_
*1273 _203_
*1274 _204_
*1275 _205_
*1276 _206_
*1277 _207_
*1278 _208_
*1279 _209_
*1280 _210_
*1281 _211_
*1282 _212_
*1283 _213_
*1284 _214_
*1285 _215_
*1286 _216_
*1287 _217_
*1288 _218_
*1289 _219_
*1290 _220_
*1291 _221_
*1292 _222_
*1293 _223_
*1294 _224_
*1295 _225_
*1296 _226_
*1297 _227_
*1298 _228_
*1299 _229_
*1300 _230_
*1301 _231_
*1302 _232_
*1303 _233_
*1304 _234_
*1305 _235_
*1306 _236_
*1307 _237_
*1308 _238_
*1309 _239_
*1310 _240_
*1311 _241_
*1312 _242_
*1313 _243_
*1314 _244_
*1315 _245_
*1316 _246_
*1317 _247_
*1318 _248_
*1319 _249_
*1320 _250_
*1321 _251_
*1322 _252_
*1323 _253_
*1324 _254_
*1325 _255_
*1326 _256_
*1327 _257_
*1328 _258_
*1329 _259_
*1330 _260_
*1331 _261_
*1332 _262_
*1333 _263_
*1334 _264_
*1335 _265_
*1336 _266_
*1337 _267_
*1338 _268_
*1339 _269_
*1340 _270_
*1341 _271_
*1342 _272_
*1343 _273_
*1344 _274_
*1345 _275_
*1346 _276_
*1347 _277_
*1348 _278_
*1349 _279_
*1350 _280_
*1351 _281_
*1352 _282_
*1353 _283_
*1354 _284_
*1355 _285_
*1356 _286_
*1357 _287_
*1358 _288_
*1359 _289_
*1360 _290_
*1361 _291_
*1362 _292_
*1363 _293_
*1364 _294_
*1365 _295_
*1366 _296_
*1367 _297_
*1368 _298_
*1369 _299_
*1370 _300_
*1371 _301_
*1372 _302_
*1373 _303_
*1374 _304_
*1375 _305_
*1376 _306_
*1377 _307_
*1378 _308_
*1379 _309_
*1380 _310_
*1381 _311_
*1382 _312_
*1383 _313_
*1384 _314_
*1385 _315_
*1386 _316_
*1387 _317_
*1388 _318_
*1389 _319_
*1390 _320_
*1391 _321_
*1392 _322_
*1393 _323_
*1394 _324_
*1395 _325_
*1396 _326_
*1397 _327_
*1398 _328_
*1399 _329_
*1400 _330_
*1401 _331_
*1402 _332_
*1403 _333_
*1404 _334_
*1405 _335_
*1406 _336_
*1407 _337_
*1408 _338_
*1409 _339_
*1410 _340_
*1411 _341_
*1412 _342_
*1413 _343_
*1414 _344_
*1415 _345_
*1416 _346_
*1417 _347_
*1418 _348_
*1419 _349_
*1420 fanout20
*1421 fanout21
*1422 fanout22
*1423 fanout23
*1424 fanout24
*1425 fanout25
*1426 fanout26
*1427 fanout27
*1428 fanout28
*1429 fanout29
*1430 fanout30
*1431 fanout31
*1432 fanout32
*1433 fanout33
*1434 fanout34
*1435 fanout35
*1436 fanout36
*1437 fanout37
*1438 fanout38
*1439 fanout39
*1440 fanout40
*1441 fanout41
*1442 fanout42
*1443 fanout43
*1444 fanout44
*1445 fanout45
*1446 fanout46
*1447 fanout47
*1448 fanout48
*1449 fanout49
*1450 fanout50
*1451 fanout51
*1452 fanout52
*1453 fanout53
*1454 fanout54
*1455 fanout55
*1456 fanout56
*1457 input1
*1458 input10
*1459 input11
*1460 input2
*1461 input3
*1462 input4
*1463 input5
*1464 input6
*1465 input7
*1466 input8
*1467 input9
*1468 max_cap16
*1469 max_cap17
*1470 max_cap19
*1471 output12
*1472 output13
*1473 output14
*1474 output15
*1475 wire18

*PORTS
addr[0] I
addr[1] I
addr[2] I
addr[3] I
clk I
nrst I
rdata[0] O
rdata[1] O
rdata[2] O
rdata[3] O
wdata[0] I
wdata[1] I
wdata[2] I
wdata[3] I
we I

*D_NET *1 0.000553332
*CONN
*P addr[0] I
*I *1457:A I *D sky130_fd_sc_hd__buf_1
*CAP
1 addr[0] 0.000248525
2 *1457:A 0.000248525
3 *1457:A *1460:A 0
4 *1457:A *4:17 3.12475e-05
5 *1457:A *159:12 2.50347e-05
*RES
1 addr[0] *1457:A 47.7832 
*END

*D_NET *2 0.000888385
*CONN
*P addr[1] I
*I *1460:A I *D sky130_fd_sc_hd__buf_1
*CAP
1 addr[1] 0.000335027
2 *1460:A 0.000335027
3 *1460:A *3:17 3.12475e-05
4 *1460:A *4:17 2.0307e-05
5 *1460:A *159:12 6.02277e-06
6 *1460:A *188:14 0.000154677
7 *1460:A *192:8 6.07611e-06
8 *1457:A *1460:A 0
*RES
1 addr[1] *1460:A 49.1918 
*END

*D_NET *3 0.000845307
*CONN
*P addr[2] I
*I *1461:A I *D sky130_fd_sc_hd__clkbuf_1
*CAP
1 addr[2] 0.000403943
2 *1461:A 0
3 *3:17 0.000403943
4 *3:17 *1381:CLK 6.17437e-06
5 *3:17 *188:14 0
6 *3:17 *188:16 0
7 *1460:A *3:17 3.12475e-05
*RES
1 addr[2] *3:17 29.2712 
2 *3:17 *1461:A 23 
*END

*D_NET *4 0.000716395
*CONN
*P addr[3] I
*I *1462:A I *D sky130_fd_sc_hd__buf_1
*CAP
1 addr[3] 0.00033242
2 *1462:A 0
3 *4:17 0.00033242
4 *4:17 *159:12 0
5 *1457:A *4:17 3.12475e-05
6 *1460:A *4:17 2.0307e-05
*RES
1 addr[3] *4:17 27.8627 
2 *4:17 *1462:A 23 
*END

*D_NET *5 0.000622368
*CONN
*P clk I
*I *1463:A I *D sky130_fd_sc_hd__clkbuf_1
*CAP
1 clk 0.000311184
2 *1463:A 0.000311184
*RES
1 clk *1463:A 49.8062 
*END

*D_NET *6 0.000482971
*CONN
*P nrst I
*I *1464:A I *D sky130_fd_sc_hd__clkbuf_1
*CAP
1 nrst 0.000196611
2 *1464:A 0.000196611
3 *1464:A *1465:A 8.97484e-05
*RES
1 nrst *1464:A 47.1648 
*END

*D_NET *7 0.000700228
*CONN
*P rdata[0] O
*I *1471:X O *D sky130_fd_sc_hd__buf_2
*CAP
1 rdata[0] 0.000337407
2 *1471:X 0.000337407
3 rdata[0] *162:23 2.5415e-05
*RES
1 *1471:X rdata[0] 48.6592 
*END

*D_NET *8 0.00140181
*CONN
*P rdata[1] O
*I *1472:X O *D sky130_fd_sc_hd__buf_2
*CAP
1 rdata[1] 0.000342675
2 *1472:X 0.000225748
3 *8:10 0.000568423
4 *8:10 *1255:A2 0.000161448
5 *8:10 *1472:A 0.000103516
*RES
1 *1472:X *8:10 42.2361 
2 *8:10 rdata[1] 9.10133 
*END

*D_NET *9 0.00106389
*CONN
*P rdata[2] O
*I *1473:X O *D sky130_fd_sc_hd__buf_2
*CAP
1 rdata[2] 0.000531944
2 *1473:X 0.000531944
3 rdata[2] rdata[3] 0
*RES
1 *1473:X rdata[2] 49.6829 
*END

*D_NET *10 0.0011036
*CONN
*P rdata[3] O
*I *1474:X O *D sky130_fd_sc_hd__buf_2
*CAP
1 rdata[3] 0.000551799
2 *1474:X 0.000551799
3 rdata[2] rdata[3] 0
*RES
1 *1474:X rdata[3] 49.2064 
*END

*D_NET *13 0.000752522
*CONN
*P wdata[0] I
*I *1465:A I *D sky130_fd_sc_hd__buf_1
*CAP
1 wdata[0] 0.000285132
2 *1465:A 0.000285132
3 *1465:A *211:8 9.2511e-05
4 *1464:A *1465:A 8.97484e-05
*RES
1 wdata[0] *1465:A 49.2777 
*END

*D_NET *14 0.000510297
*CONN
*P wdata[1] I
*I *1466:A I *D sky130_fd_sc_hd__buf_1
*CAP
1 wdata[1] 0.000210274
2 *1466:A 0.000210274
3 *1466:A *1459:A 8.97484e-05
4 *1466:A *227:21 0
*RES
1 wdata[1] *1466:A 47.5169 
*END

*D_NET *15 0.00101523
*CONN
*P wdata[2] I
*I *1467:A I *D sky130_fd_sc_hd__buf_1
*CAP
1 wdata[2] 0.000507616
2 *1467:A 0.000507616
3 *1467:A *1458:A 0
*RES
1 wdata[2] *1467:A 48.2743 
*END

*D_NET *16 0.000868078
*CONN
*P wdata[3] I
*I *1458:A I *D sky130_fd_sc_hd__buf_1
*CAP
1 wdata[3] 0.000434039
2 *1458:A 0.000434039
3 *1467:A *1458:A 0
*RES
1 wdata[3] *1458:A 47.4664 
*END

*D_NET *17 0.000757798
*CONN
*P we I
*I *1459:A I *D sky130_fd_sc_hd__clkbuf_1
*CAP
1 we 0.000334025
2 *1459:A 0.000334025
3 *1459:A *186:38 0
4 *1466:A *1459:A 8.97484e-05
*RES
1 we *1459:A 49.6298 
*END

*D_NET *18 0.000885447
*CONN
*I *1352:D I *D sky130_fd_sc_hd__dfrtp_1
*I *1213:X O *D sky130_fd_sc_hd__mux2_1
*CAP
1 *1352:D 0
2 *1213:X 0.000327525
3 *18:10 0.000327525
4 *18:10 *110:10 0.000114083
5 *18:10 *224:20 0.000116314
*RES
1 *1213:X *18:10 43.0336 
2 *18:10 *1352:D 38 
*END

*D_NET *19 0.0013283
*CONN
*I *1353:D I *D sky130_fd_sc_hd__dfrtp_1
*I *1214:X O *D sky130_fd_sc_hd__mux2_1
*CAP
1 *1353:D 0
2 *1214:X 0.000510243
3 *19:10 0.000510243
4 *19:10 *86:37 0.000271476
5 *19:10 *110:10 0
6 *19:10 *175:64 1.74848e-05
7 *19:10 *175:68 8.91468e-07
8 *19:10 *206:28 1.79651e-05
9 *19:10 *206:34 0
*RES
1 *1214:X *19:10 45.4157 
2 *19:10 *1353:D 38 
*END

*D_NET *20 0.000519675
*CONN
*I *1354:D I *D sky130_fd_sc_hd__dfrtp_1
*I *1215:X O *D sky130_fd_sc_hd__mux2_1
*CAP
1 *1354:D 0
2 *1215:X 0.000159383
3 *20:10 0.000159383
4 *20:10 *106:45 7.14905e-05
5 *20:10 *111:26 1.14452e-05
6 *20:10 *173:136 2.11887e-05
7 *20:10 *207:49 0
8 *20:10 *213:14 9.67842e-05
*RES
1 *1215:X *20:10 41.0036 
2 *20:10 *1354:D 38 
*END

*D_NET *21 0.000562312
*CONN
*I *1355:D I *D sky130_fd_sc_hd__dfrtp_1
*I *1216:X O *D sky130_fd_sc_hd__mux2_1
*CAP
1 *1355:D 9.15548e-05
2 *1216:X 0.000110084
3 *21:10 0.000201639
4 *1355:D *1355:CLK 6.17437e-06
5 *1355:D *87:17 3.46673e-05
6 *21:10 *1216:S 5.31444e-05
7 *21:10 *186:97 2.93845e-05
8 *21:10 *189:8 3.5664e-05
*RES
1 *1216:X *21:10 40.175 
2 *21:10 *1355:D 39.5743 
*END

*D_NET *22 0.000389682
*CONN
*I *1356:D I *D sky130_fd_sc_hd__dfrtp_1
*I *1244:X O *D sky130_fd_sc_hd__a22o_1
*CAP
1 *1356:D 0.000123854
2 *1244:X 0.000123854
3 *1356:D *1244:B2 0.000141974
*RES
1 *1244:X *1356:D 47.9523 
*END

*D_NET *23 0.00119388
*CONN
*I *1357:D I *D sky130_fd_sc_hd__dfrtp_1
*I *1255:X O *D sky130_fd_sc_hd__a22o_1
*CAP
1 *1357:D 0.000376849
2 *1255:X 5.04181e-05
3 *23:8 0.000427267
4 *23:8 *1255:A2 0.000169674
5 *23:8 *186:66 0.000169674
*RES
1 *1255:X *23:8 40.2579 
2 *23:8 *1357:D 43.3857 
*END

*D_NET *24 0.000944577
*CONN
*I *1358:D I *D sky130_fd_sc_hd__dfrtp_1
*I *1266:X O *D sky130_fd_sc_hd__a22o_1
*CAP
1 *1358:D 0
2 *1266:X 0.000445213
3 *24:10 0.000445213
4 *24:10 *42:8 0
5 *24:10 *255:14 3.85883e-05
6 *24:10 *255:31 1.55622e-05
*RES
1 *1266:X *24:10 44.3386 
2 *24:10 *1358:D 38 
*END

*D_NET *25 0.000509135
*CONN
*I *1359:D I *D sky130_fd_sc_hd__dfrtp_1
*I *1276:X O *D sky130_fd_sc_hd__mux2_1
*CAP
1 *1359:D 0
2 *1276:X 0.00021367
3 *25:10 0.00021367
4 *25:10 *1266:A2 0
5 *25:10 *1276:A1 8.1796e-05
*RES
1 *1276:X *25:10 41.48 
2 *25:10 *1359:D 38 
*END

*D_NET *26 0.000480474
*CONN
*I *1360:D I *D sky130_fd_sc_hd__dfrtp_1
*I *1278:X O *D sky130_fd_sc_hd__mux2_1
*CAP
1 *1360:D 0.000119391
2 *1278:X 9.78994e-05
3 *26:8 0.000217291
4 *26:8 *1281:S 0
5 *26:8 *185:25 4.58924e-05
*RES
1 *1278:X *26:8 39.9057 
2 *26:8 *1360:D 40.0507 
*END

*D_NET *27 0.000314506
*CONN
*I *1361:D I *D sky130_fd_sc_hd__dfrtp_1
*I *1279:X O *D sky130_fd_sc_hd__mux2_1
*CAP
1 *1361:D 4.50142e-05
2 *1279:X 7.66722e-05
3 *27:8 0.000121686
4 *27:8 *1451:A 0
5 *27:8 *204:164 1.01436e-05
6 *27:8 *212:29 4.95442e-05
7 *27:8 *216:26 1.14452e-05
*RES
1 *1279:X *27:8 39.5536 
2 *27:8 *1361:D 38.6214 
*END

*D_NET *28 0.0010096
*CONN
*I *1362:D I *D sky130_fd_sc_hd__dfrtp_1
*I *1280:X O *D sky130_fd_sc_hd__mux2_1
*CAP
1 *1362:D 0.000284972
2 *1280:X 6.1509e-05
3 *28:8 0.000346481
4 *1362:D *185:52 0.000132178
5 *28:8 *142:10 7.03766e-05
6 *28:8 *186:72 0.000114083
7 *28:8 *217:25 0
*RES
1 *1280:X *28:8 39.9057 
2 *28:8 *1362:D 43.3857 
*END

*D_NET *29 0.00124006
*CONN
*I *1363:D I *D sky130_fd_sc_hd__dfrtp_1
*I *1281:X O *D sky130_fd_sc_hd__mux2_1
*CAP
1 *1363:D 0
2 *1281:X 0.000460053
3 *29:10 0.000460053
4 *29:10 *1281:A1 0.000230604
5 *29:10 *1281:S 5.72217e-05
6 *29:10 *185:52 0
7 *29:10 *195:52 3.21327e-05
*RES
1 *1281:X *29:10 44.9393 
2 *29:10 *1363:D 38 
*END

*D_NET *30 0.00053779
*CONN
*I *1364:D I *D sky130_fd_sc_hd__dfrtp_1
*I *1283:X O *D sky130_fd_sc_hd__mux2_1
*CAP
1 *1364:D 6.02923e-05
2 *1283:X 6.55713e-05
3 *30:8 0.000125864
4 *1364:D *145:52 3.87132e-05
5 *1364:D *169:48 9.84794e-05
6 *30:8 *1356:CLK 0
7 *30:8 *169:48 3.47781e-05
8 *30:8 *175:193 0.000114092
*RES
1 *1283:X *30:8 39.5536 
2 *30:8 *1364:D 39.5743 
*END

*D_NET *31 0.000748323
*CONN
*I *1365:D I *D sky130_fd_sc_hd__dfrtp_1
*I *1284:X O *D sky130_fd_sc_hd__mux2_1
*CAP
1 *1365:D 0.000146238
2 *1284:X 4.66032e-05
3 *31:8 0.000192841
4 *1365:D *1319:A0 7.88828e-05
5 *31:8 *1365:RESET_B 0.000141879
6 *31:8 *212:29 0.000141879
*RES
1 *1284:X *31:8 39.9057 
2 *31:8 *1365:D 40.5271 
*END

*D_NET *32 0.00088307
*CONN
*I *1366:D I *D sky130_fd_sc_hd__dfrtp_1
*I *1285:X O *D sky130_fd_sc_hd__mux2_1
*CAP
1 *1366:D 0
2 *1285:X 0.000248138
3 *32:10 0.000248138
4 *32:10 *169:33 5.56203e-05
5 *32:10 *171:135 4.79641e-05
6 *32:10 *171:149 0.000185428
7 *32:10 *205:31 1.37349e-05
8 *32:10 *245:21 8.4047e-05
*RES
1 *1285:X *32:10 42.5571 
2 *32:10 *1366:D 38 
*END

*D_NET *33 0.000508021
*CONN
*I *1367:D I *D sky130_fd_sc_hd__dfrtp_1
*I *1286:X O *D sky130_fd_sc_hd__mux2_1
*CAP
1 *1367:D 0
2 *1286:X 0.000205703
3 *33:12 0.000205703
4 *33:12 *1321:S 0
5 *33:12 *102:29 2.93845e-05
6 *33:12 *190:10 4.21594e-06
7 *33:12 *190:16 5.93018e-05
8 *33:12 *207:117 3.7122e-06
*RES
1 *1286:X *33:12 41.7286 
2 *33:12 *1367:D 38 
*END

*D_NET *34 0.000599012
*CONN
*I *1368:D I *D sky130_fd_sc_hd__dfrtp_1
*I *1288:X O *D sky130_fd_sc_hd__mux2_1
*CAP
1 *1368:D 0.000146958
2 *1288:X 5.86628e-05
3 *34:8 0.000205621
4 *34:8 *1368:RESET_B 4.58924e-05
5 *34:8 *148:32 0.000141879
*RES
1 *1288:X *34:8 39.9057 
2 *34:8 *1368:D 40.0507 
*END

*D_NET *35 0.00134052
*CONN
*I *1369:D I *D sky130_fd_sc_hd__dfrtp_1
*I *1289:X O *D sky130_fd_sc_hd__mux2_1
*CAP
1 *1369:D 0.000252598
2 *1289:X 0.000245396
3 *35:10 0.000497994
4 *1369:D *1369:CLK 3.7122e-06
5 *1369:D *191:43 0.000125416
6 *35:10 *1305:A0 0.000157626
7 *35:10 *173:71 5.50106e-05
8 *35:10 *182:63 2.76611e-06
9 *35:10 *191:10 0
*RES
1 *1289:X *35:10 41.7286 
2 *35:10 *1369:D 41.9771 
*END

*D_NET *36 0.000885663
*CONN
*I *1370:D I *D sky130_fd_sc_hd__dfrtp_1
*I *1290:X O *D sky130_fd_sc_hd__mux2_1
*CAP
1 *1370:D 3.23423e-05
2 *1290:X 0.000346664
3 *36:10 0.000379006
4 *1370:D *172:50 1.73399e-05
5 *36:10 *1290:S 0.000100415
6 *36:10 *125:8 9.8971e-06
7 *36:10 *191:118 0
8 *36:10 *196:75 0
*RES
1 *1290:X *36:10 43.0336 
2 *36:10 *1370:D 38.6214 
*END

*D_NET *37 0.00067414
*CONN
*I *1371:D I *D sky130_fd_sc_hd__dfrtp_1
*I *1291:X O *D sky130_fd_sc_hd__mux2_1
*CAP
1 *1371:D 0
2 *1291:X 0.00033707
3 *37:10 0.00033707
4 *37:10 *1371:RESET_B 0
5 *37:10 *196:16 0
*RES
1 *1291:X *37:10 42.9093 
2 *37:10 *1371:D 38 
*END

*D_NET *38 0.000954927
*CONN
*I *1372:D I *D sky130_fd_sc_hd__dfrtp_1
*I *1293:X O *D sky130_fd_sc_hd__mux2_1
*CAP
1 *1372:D 0
2 *1293:X 0.00040608
3 *38:10 0.00040608
4 *38:10 *1372:CLK 3.81391e-05
5 *38:10 *1456:A 0.000104628
6 *38:10 *173:63 0
*RES
1 *1293:X *38:10 43.9864 
2 *38:10 *1372:D 38 
*END

*D_NET *39 0.00113052
*CONN
*I *1373:D I *D sky130_fd_sc_hd__dfrtp_1
*I *1294:X O *D sky130_fd_sc_hd__mux2_1
*CAP
1 *1373:D 0
2 *1294:X 0.000409292
3 *39:8 0.000409292
4 *39:8 *1294:S 0
5 *39:8 *1373:CLK 0.000153145
6 *39:8 *1373:RESET_B 1.94335e-05
7 *39:8 *173:63 0.000139357
*RES
1 *1294:X *39:8 31.7414 
2 *39:8 *1373:D 23 
*END

*D_NET *40 0.00108619
*CONN
*I *1374:D I *D sky130_fd_sc_hd__dfrtp_1
*I *1295:X O *D sky130_fd_sc_hd__mux2_1
*CAP
1 *1374:D 0
2 *1295:X 0.000418918
3 *40:10 0.000418918
4 *40:10 *1295:S 7.24484e-05
5 *40:10 *95:42 0
6 *40:10 *182:19 4.21594e-06
7 *40:10 *182:29 3.14274e-05
8 *40:10 *182:33 0.000140259
*RES
1 *1295:X *40:10 44.4629 
2 *40:10 *1374:D 38 
*END

*D_NET *41 0.000679489
*CONN
*I *1375:D I *D sky130_fd_sc_hd__dfrtp_1
*I *1296:X O *D sky130_fd_sc_hd__mux2_1
*CAP
1 *1375:D 7.49359e-05
2 *1296:X 6.99742e-05
3 *41:8 0.00014491
4 *1375:D *99:55 8.46456e-05
5 *1375:D *101:10 0.000123934
6 *41:8 *95:42 4.23714e-05
7 *41:8 *202:8 0.000138718
*RES
1 *1296:X *41:8 39.9057 
2 *41:8 *1375:D 40.5271 
*END

*D_NET *42 0.00101261
*CONN
*I *1376:D I *D sky130_fd_sc_hd__dfrtp_1
*I *1298:X O *D sky130_fd_sc_hd__mux2_1
*CAP
1 *1376:D 0.000179511
2 *1298:X 9.4544e-05
3 *42:8 0.000274055
4 *1376:D *1376:CLK 0.000272458
5 *1376:D *208:99 7.88828e-05
6 *42:8 *195:10 0.000113153
7 *42:8 *208:99 0
8 *24:10 *42:8 0
*RES
1 *1298:X *42:8 39.9057 
2 *42:8 *1376:D 43.3857 
*END

*D_NET *43 0.000669934
*CONN
*I *1377:D I *D sky130_fd_sc_hd__dfrtp_1
*I *1299:X O *D sky130_fd_sc_hd__mux2_1
*CAP
1 *1377:D 0
2 *1299:X 0.000201982
3 *43:10 0.000201982
4 *43:10 *150:18 5.56203e-05
5 *43:10 *173:118 9.62666e-05
6 *43:10 *191:90 0.000114083
*RES
1 *1299:X *43:10 41.6043 
2 *43:10 *1377:D 38 
*END

*D_NET *44 0.000304648
*CONN
*I *1378:D I *D sky130_fd_sc_hd__dfrtp_1
*I *1300:X O *D sky130_fd_sc_hd__mux2_1
*CAP
1 *1378:D 0
2 *1300:X 3.60093e-05
3 *44:8 3.60093e-05
4 *44:8 *176:28 0.000116314
5 *44:8 *208:50 0.000116314
*RES
1 *1300:X *44:8 39.5536 
2 *44:8 *1378:D 38 
*END

*D_NET *45 0.000544202
*CONN
*I *1379:D I *D sky130_fd_sc_hd__dfrtp_1
*I *1301:X O *D sky130_fd_sc_hd__mux2_1
*CAP
1 *1379:D 0
2 *1301:X 0.000272101
3 *45:10 0.000272101
*RES
1 *1301:X *45:10 41.9564 
2 *45:10 *1379:D 38 
*END

*D_NET *46 0.000463227
*CONN
*I *1380:D I *D sky130_fd_sc_hd__dfrtp_1
*I *1303:X O *D sky130_fd_sc_hd__mux2_1
*CAP
1 *1380:D 0
2 *1303:X 0.000190286
3 *46:10 0.000190286
4 *46:10 *1236:C 2.86209e-05
5 *46:10 *192:23 5.40337e-05
*RES
1 *1303:X *46:10 40.6514 
2 *46:10 *1380:D 38 
*END

*D_NET *47 0.00112578
*CONN
*I *1381:D I *D sky130_fd_sc_hd__dfrtp_1
*I *1304:X O *D sky130_fd_sc_hd__mux2_1
*CAP
1 *1381:D 0
2 *1304:X 0.0003775
3 *47:10 0.0003775
4 *47:10 *159:12 4.48671e-05
5 *47:10 *196:32 0.000141879
6 *47:10 *197:14 0.000147134
7 *47:10 *209:6 4.04598e-06
8 *47:10 *209:25 3.28496e-05
*RES
1 *1304:X *47:10 44.3386 
2 *47:10 *1381:D 38 
*END

*D_NET *48 0.00078967
*CONN
*I *1382:D I *D sky130_fd_sc_hd__dfrtp_1
*I *1305:X O *D sky130_fd_sc_hd__mux2_1
*CAP
1 *1382:D 0
2 *1305:X 0.000327667
3 *48:10 0.000327667
4 *48:10 *196:16 5.83407e-05
5 *48:10 *196:26 7.59964e-05
*RES
1 *1305:X *48:10 43.3857 
2 *48:10 *1382:D 38 
*END

*D_NET *49 0.00111031
*CONN
*I *1383:D I *D sky130_fd_sc_hd__dfrtp_1
*I *1306:X O *D sky130_fd_sc_hd__mux2_1
*CAP
1 *1383:D 0
2 *1306:X 0.000457974
3 *49:8 0.000457974
4 *49:8 *1383:RESET_B 0.000182165
5 *49:8 *262:6 1.21972e-05
*RES
1 *1306:X *49:8 31.7414 
2 *49:8 *1383:D 23 
*END

*D_NET *50 0.0011911
*CONN
*I *1384:D I *D sky130_fd_sc_hd__dfrtp_1
*I *1308:X O *D sky130_fd_sc_hd__mux2_1
*CAP
1 *1384:D 0
2 *1308:X 0.000428019
3 *50:8 0.000428019
4 *50:8 *1384:RESET_B 2.33744e-05
5 *50:8 *176:28 0
6 *50:8 *182:47 9.74722e-05
7 *50:8 *182:57 0.000208038
8 *50:8 *248:8 6.17437e-06
*RES
1 *1308:X *50:8 32.2179 
2 *50:8 *1384:D 23 
*END

*D_NET *51 0.00106162
*CONN
*I *1385:D I *D sky130_fd_sc_hd__dfrtp_1
*I *1309:X O *D sky130_fd_sc_hd__mux2_1
*CAP
1 *1385:D 0
2 *1309:X 0.000335075
3 *51:10 0.000335075
4 *51:10 *173:101 0.000355817
5 *51:10 *204:113 3.56537e-05
*RES
1 *1309:X *51:10 43.51 
2 *51:10 *1385:D 38 
*END

*D_NET *52 0.00120962
*CONN
*I *1386:D I *D sky130_fd_sc_hd__dfrtp_1
*I *1310:X O *D sky130_fd_sc_hd__mux2_1
*CAP
1 *1386:D 0
2 *1310:X 0.00045746
3 *52:10 0.00045746
4 *52:10 *1306:S 0.000111462
5 *52:10 *95:65 0
6 *52:10 *172:35 0.000183235
*RES
1 *1310:X *52:10 44.9393 
2 *52:10 *1386:D 38 
*END

*D_NET *53 0.000568598
*CONN
*I *1387:D I *D sky130_fd_sc_hd__dfrtp_1
*I *1311:X O *D sky130_fd_sc_hd__mux2_1
*CAP
1 *1387:D 0
2 *1311:X 0.000190376
3 *53:10 0.000190376
4 *53:10 *146:44 0.000141954
5 *53:10 *183:61 4.58924e-05
6 *53:10 *250:10 0
*RES
1 *1311:X *53:10 41.48 
2 *53:10 *1387:D 38 
*END

*D_NET *54 0.001166
*CONN
*I *1388:D I *D sky130_fd_sc_hd__dfrtp_1
*I *1313:X O *D sky130_fd_sc_hd__mux2_1
*CAP
1 *1388:D 0
2 *1313:X 0.000412456
3 *54:10 0.000412456
4 *54:10 *1282:A 0.000137651
5 *54:10 *171:125 3.46181e-05
6 *54:10 *194:32 0.000168821
7 *54:10 *205:19 0
*RES
1 *1313:X *54:10 44.4629 
2 *54:10 *1388:D 38 
*END

*D_NET *55 0.0013465
*CONN
*I *1389:D I *D sky130_fd_sc_hd__dfrtp_1
*I *1314:X O *D sky130_fd_sc_hd__mux2_1
*CAP
1 *1389:D 0
2 *1314:X 0.000373917
3 *55:10 0.000373917
4 *55:10 *1270:A1 1.14452e-05
5 *55:10 *1316:A1 0.000140949
6 *55:10 *112:12 0
7 *55:10 *121:10 0.000446275
*RES
1 *1314:X *55:10 44.815 
2 *55:10 *1389:D 38 
*END

*D_NET *56 0.00132935
*CONN
*I *1390:D I *D sky130_fd_sc_hd__dfrtp_1
*I *1315:X O *D sky130_fd_sc_hd__mux2_1
*CAP
1 *1390:D 0
2 *1315:X 0.000183259
3 *56:24 0.000132516
4 *56:14 0.000315776
5 *56:14 *88:27 0.000122053
6 *56:14 *142:10 1.00765e-05
7 *56:14 *151:18 3.70187e-05
8 *56:14 *172:67 5.50049e-05
9 *56:14 *172:86 0.000228442
10 *56:14 *269:25 1.14452e-05
11 *56:24 *142:10 0.000114083
12 *56:24 *205:31 9.84851e-05
13 *56:24 *269:25 2.11887e-05
*RES
1 *1315:X *56:14 42.8471 
2 *56:14 *56:24 47.6514 
3 *56:24 *1390:D 23 
*END

*D_NET *57 0.00120234
*CONN
*I *1391:D I *D sky130_fd_sc_hd__dfrtp_1
*I *1316:X O *D sky130_fd_sc_hd__mux2_1
*CAP
1 *1391:D 0
2 *1316:X 0.000430301
3 *57:10 0.000430301
4 *57:10 *1320:S 0
5 *57:10 *169:12 0.000192385
6 *57:10 *172:73 2.54046e-05
7 *57:10 *208:39 0.000123944
*RES
1 *1316:X *57:10 45.9543 
2 *57:10 *1391:D 38 
*END

*D_NET *58 0.000669196
*CONN
*I *1392:D I *D sky130_fd_sc_hd__dfrtp_1
*I *1318:X O *D sky130_fd_sc_hd__mux2_1
*CAP
1 *1392:D 7.02286e-05
2 *1318:X 5.242e-05
3 *58:8 0.000122649
4 *1392:D *190:49 6.70361e-05
5 *1392:D *271:8 0.000135037
6 *58:8 *1409:CLK 0.000110913
7 *58:8 *104:61 0.000110913
*RES
1 *1318:X *58:8 39.5536 
2 *58:8 *1392:D 39.5743 
*END

*D_NET *59 0.000468667
*CONN
*I *1393:D I *D sky130_fd_sc_hd__dfrtp_1
*I *1319:X O *D sky130_fd_sc_hd__mux2_1
*CAP
1 *1393:D 0
2 *1319:X 9.47934e-05
3 *59:10 9.47934e-05
4 *59:10 *1252:D1 0.000110922
5 *59:10 *1319:A0 5.50049e-05
6 *59:10 *122:10 0.000113153
*RES
1 *1319:X *59:10 40.175 
2 *59:10 *1393:D 38 
*END

*D_NET *60 0.000519759
*CONN
*I *1394:D I *D sky130_fd_sc_hd__dfrtp_1
*I *1320:X O *D sky130_fd_sc_hd__mux2_1
*CAP
1 *1394:D 0.000212239
2 *1320:X 0.000212239
3 *1394:D *1320:A1 4.56101e-05
4 *1394:D *194:87 4.96717e-05
*RES
1 *1320:X *1394:D 49.0243 
*END

*D_NET *61 0.00103152
*CONN
*I *1395:D I *D sky130_fd_sc_hd__dfrtp_1
*I *1321:X O *D sky130_fd_sc_hd__mux2_1
*CAP
1 *1395:D 0
2 *1321:X 0.000313058
3 *61:10 0.000313058
4 *61:10 *141:10 0.000265466
5 *61:10 *180:59 0
6 *61:10 *207:78 1.01436e-05
7 *61:10 *207:104 0.000129793
*RES
1 *1321:X *61:10 42.9093 
2 *61:10 *1395:D 38 
*END

*D_NET *62 0.000632505
*CONN
*I *1396:D I *D sky130_fd_sc_hd__dfrtp_1
*I *1323:X O *D sky130_fd_sc_hd__mux2_1
*CAP
1 *1396:D 0
2 *1323:X 0.000316252
3 *62:10 0.000316252
4 *62:10 *153:12 0
*RES
1 *1323:X *62:10 42.4329 
2 *62:10 *1396:D 38 
*END

*D_NET *63 0.00100262
*CONN
*I *1397:D I *D sky130_fd_sc_hd__dfrtp_1
*I *1324:X O *D sky130_fd_sc_hd__mux2_1
*CAP
1 *1397:D 0
2 *1324:X 0.000478364
3 *63:10 0.000478364
4 *63:10 *188:20 0
5 *63:10 *196:32 4.58924e-05
*RES
1 *1324:X *63:10 44.815 
2 *63:10 *1397:D 38 
*END

*D_NET *64 0.000696414
*CONN
*I *1398:D I *D sky130_fd_sc_hd__dfrtp_1
*I *1325:X O *D sky130_fd_sc_hd__mux2_1
*CAP
1 *1398:D 0.000221978
2 *1325:X 0.000126229
3 *64:8 0.000348207
4 *64:8 *1325:A0 0
*RES
1 *1325:X *64:8 40.2579 
2 *64:8 *1398:D 41.9564 
*END

*D_NET *65 0.000687149
*CONN
*I *1399:D I *D sky130_fd_sc_hd__dfrtp_1
*I *1326:X O *D sky130_fd_sc_hd__mux2_1
*CAP
1 *1399:D 8.95352e-05
2 *1326:X 0.000121566
3 *65:10 0.000211102
4 *1399:D *1399:RESET_B 0.000103405
5 *65:10 *188:47 2.18926e-05
6 *65:10 *214:35 0.000139647
*RES
1 *1326:X *65:10 40.5271 
2 *65:10 *1399:D 40.0507 
*END

*D_NET *66 0.000471057
*CONN
*I *1400:D I *D sky130_fd_sc_hd__dfrtp_1
*I *1328:X O *D sky130_fd_sc_hd__mux2_1
*CAP
1 *1400:D 0
2 *1328:X 0.00016301
3 *66:10 0.00016301
4 *66:10 *1402:CLK 4.48568e-05
5 *66:10 *175:12 0
6 *66:10 *186:18 0.00010018
*RES
1 *1328:X *66:10 41.0036 
2 *66:10 *1400:D 38 
*END

*D_NET *67 0.000710545
*CONN
*I *1401:D I *D sky130_fd_sc_hd__dfrtp_1
*I *1329:X O *D sky130_fd_sc_hd__mux2_1
*CAP
1 *1401:D 0
2 *1329:X 0.000170056
3 *67:10 0.000170056
4 *67:10 *1329:A1 8.4047e-05
5 *67:10 *104:44 0.000110922
6 *67:10 *156:16 0.000138444
7 *67:10 *220:25 3.70187e-05
*RES
1 *1329:X *67:10 41.1279 
2 *67:10 *1401:D 38 
*END

*D_NET *68 0.00116007
*CONN
*I *1402:D I *D sky130_fd_sc_hd__dfrtp_1
*I *1330:X O *D sky130_fd_sc_hd__mux2_1
*CAP
1 *1402:D 0
2 *1330:X 0.000426737
3 *68:10 0.000426737
4 *68:10 *154:27 7.59964e-05
5 *68:10 *221:27 0.000230604
*RES
1 *1330:X *68:10 44.9393 
2 *68:10 *1402:D 38 
*END

*D_NET *69 0.000577049
*CONN
*I *1403:D I *D sky130_fd_sc_hd__dfrtp_1
*I *1331:X O *D sky130_fd_sc_hd__mux2_1
*CAP
1 *1403:D 0
2 *1331:X 0.000231948
3 *69:10 0.000231948
4 *69:10 *1271:A1 0
5 *69:10 *1271:B2 0.000113153
*RES
1 *1331:X *69:10 41.6043 
2 *69:10 *1403:D 38 
*END

*D_NET *70 0.00256006
*CONN
*I *1404:D I *D sky130_fd_sc_hd__dfrtp_1
*I *1333:X O *D sky130_fd_sc_hd__mux2_1
*CAP
1 *1404:D 0.000279587
2 *1333:X 0.000504911
3 *70:10 0.000784498
4 *1404:D *1404:CLK 9.53106e-05
5 *70:10 *1323:A1 0
6 *70:10 *1404:CLK 0.000215735
7 *70:10 *78:10 0.000110922
8 *70:10 *175:97 0.000481943
9 *70:10 *187:44 8.71559e-05
*RES
1 *1333:X *70:10 47.4043 
2 *70:10 *1404:D 41.9771 
*END

*D_NET *71 0.000830911
*CONN
*I *1405:D I *D sky130_fd_sc_hd__dfrtp_1
*I *1334:X O *D sky130_fd_sc_hd__mux2_1
*CAP
1 *1405:D 0
2 *1334:X 0.000278416
3 *71:10 0.000278416
4 *71:10 *107:26 0
5 *71:10 *175:70 0
6 *71:10 *207:18 0.000274078
*RES
1 *1334:X *71:10 42.5571 
2 *71:10 *1405:D 38 
*END

*D_NET *72 0.000627796
*CONN
*I *1406:D I *D sky130_fd_sc_hd__dfrtp_1
*I *1335:X O *D sky130_fd_sc_hd__mux2_1
*CAP
1 *1406:D 4.29775e-05
2 *1335:X 9.81661e-05
3 *72:8 0.000141144
4 *1406:D *189:53 7.24365e-05
5 *1406:D *207:45 0.00010655
6 *72:8 *189:27 0
7 *72:8 *189:35 0
8 *72:8 *207:49 0.000166522
*RES
1 *1335:X *72:8 40.2579 
2 *72:8 *1406:D 40.0507 
*END

*D_NET *73 0.000605552
*CONN
*I *1407:D I *D sky130_fd_sc_hd__dfrtp_1
*I *1336:X O *D sky130_fd_sc_hd__mux2_1
*CAP
1 *1407:D 0
2 *1336:X 0.000302776
3 *73:10 0.000302776
4 *73:10 *171:50 0
5 *73:10 *207:145 0
*RES
1 *1336:X *73:10 42.4329 
2 *73:10 *1407:D 38 
*END

*D_NET *74 0.00129258
*CONN
*I *1408:D I *D sky130_fd_sc_hd__dfrtp_1
*I *1338:X O *D sky130_fd_sc_hd__mux2_1
*CAP
1 *1408:D 0
2 *1338:X 0.000427325
3 *74:10 0.000427325
4 *74:10 *156:61 0.000229866
5 *74:10 *175:27 0.000138718
6 *74:10 *206:115 6.93449e-05
*RES
1 *1338:X *74:10 44.815 
2 *74:10 *1408:D 38 
*END

*D_NET *75 0.000629886
*CONN
*I *1409:D I *D sky130_fd_sc_hd__dfrtp_1
*I *1339:X O *D sky130_fd_sc_hd__mux2_1
*CAP
1 *1409:D 0.000115038
2 *1339:X 5.86628e-05
3 *75:8 0.000173701
4 *1409:D *180:25 9.4713e-05
5 *75:8 *1339:A1 4.58924e-05
6 *75:8 *212:29 0.000141879
*RES
1 *1339:X *75:8 39.9057 
2 *75:8 *1409:D 40.0507 
*END

*D_NET *76 0.00139831
*CONN
*I *1410:D I *D sky130_fd_sc_hd__dfrtp_1
*I *1340:X O *D sky130_fd_sc_hd__mux2_1
*CAP
1 *1410:D 0
2 *1340:X 0.000410563
3 *76:10 0.000410563
4 *76:10 *111:32 0.000438468
5 *76:10 *156:29 0.000138718
6 *76:10 *189:101 0
*RES
1 *1340:X *76:10 44.815 
2 *76:10 *1410:D 38 
*END

*D_NET *77 0.000992233
*CONN
*I *1411:D I *D sky130_fd_sc_hd__dfrtp_1
*I *1341:X O *D sky130_fd_sc_hd__mux2_1
*CAP
1 *1411:D 8.68336e-05
2 *1341:X 0.000230002
3 *77:10 0.000316836
4 *1411:D *1411:RESET_B 6.17437e-06
5 *1411:D *103:29 0.000100733
6 *77:10 *103:29 3.0647e-05
7 *77:10 *118:8 5.50049e-05
8 *77:10 *139:14 0
9 *77:10 *171:121 0.000166002
*RES
1 *1341:X *77:10 42.2879 
2 *77:10 *1411:D 40.0507 
*END

*D_NET *78 0.00116326
*CONN
*I *1412:D I *D sky130_fd_sc_hd__dfrtp_1
*I *1343:X O *D sky130_fd_sc_hd__mux2_1
*CAP
1 *1412:D 0
2 *1343:X 0.000415478
3 *78:10 0.000415478
4 *78:10 *1323:A1 0
5 *78:10 *1404:RESET_B 0.000221386
6 *70:10 *78:10 0.000110922
*RES
1 *1343:X *78:10 44.4629 
2 *78:10 *1412:D 38 
*END

*D_NET *79 0.00052545
*CONN
*I *1413:D I *D sky130_fd_sc_hd__dfrtp_1
*I *1344:X O *D sky130_fd_sc_hd__mux2_1
*CAP
1 *1413:D 4.85178e-05
2 *1344:X 0.000126171
3 *79:8 0.000174689
4 *1413:D *110:49 0.000103637
5 *1413:D *111:12 7.24365e-05
6 *79:8 *187:78 0
7 *79:8 *234:25 0
*RES
1 *1344:X *79:8 39.9057 
2 *79:8 *1413:D 40.0507 
*END

*D_NET *80 0.000329086
*CONN
*I *1414:D I *D sky130_fd_sc_hd__dfrtp_1
*I *1345:X O *D sky130_fd_sc_hd__mux2_1
*CAP
1 *1414:D 3.57483e-05
2 *1345:X 8.62925e-05
3 *80:8 0.000122041
4 *1414:D *177:12 2.93845e-05
5 *80:8 *1345:A1 0
6 *80:8 *189:35 5.56203e-05
*RES
1 *1345:X *80:8 39.5536 
2 *80:8 *1414:D 38.6214 
*END

*D_NET *81 0.00078633
*CONN
*I *1415:D I *D sky130_fd_sc_hd__dfrtp_1
*I *1346:X O *D sky130_fd_sc_hd__mux2_1
*CAP
1 *1415:D 0
2 *1346:X 0.000282484
3 *81:10 0.000282484
4 *81:10 *187:78 0.000140949
5 *81:10 *207:16 8.04127e-05
*RES
1 *1346:X *81:10 42.9093 
2 *81:10 *1415:D 38 
*END

*D_NET *82 0.000519214
*CONN
*I *1416:D I *D sky130_fd_sc_hd__dfrtp_1
*I *1348:X O *D sky130_fd_sc_hd__mux2_1
*CAP
1 *1416:D 4.02916e-05
2 *1348:X 0.000118823
3 *82:10 0.000159114
4 *1416:D *1416:CLK 2.93431e-05
5 *82:10 *1261:A2 5.53064e-05
6 *82:10 *153:42 0.000114092
7 *82:10 *175:123 2.24366e-06
*RES
1 *1348:X *82:10 40.175 
2 *82:10 *1416:D 38.6214 
*END

*D_NET *83 0.00102541
*CONN
*I *1417:D I *D sky130_fd_sc_hd__dfrtp_1
*I *1349:X O *D sky130_fd_sc_hd__mux2_1
*CAP
1 *1417:D 0
2 *1349:X 0.000510597
3 *83:10 0.000510597
4 *83:10 *188:20 4.21594e-06
5 *83:10 *196:32 0
*RES
1 *1349:X *83:10 44.815 
2 *83:10 *1417:D 38 
*END

*D_NET *84 0.000912467
*CONN
*I *1418:D I *D sky130_fd_sc_hd__dfrtp_1
*I *1350:X O *D sky130_fd_sc_hd__mux2_1
*CAP
1 *1418:D 0
2 *1350:X 0.000379896
3 *84:10 0.000379896
4 *84:10 *187:12 3.81391e-05
5 *84:10 *196:32 0.000114537
*RES
1 *1350:X *84:10 43.9864 
2 *84:10 *1418:D 38 
*END

*D_NET *85 0.00118729
*CONN
*I *1419:D I *D sky130_fd_sc_hd__dfrtp_1
*I *1351:X O *D sky130_fd_sc_hd__mux2_1
*CAP
1 *1419:D 0
2 *1351:X 0.00039158
3 *85:8 0.00039158
4 *85:8 *109:41 2.64616e-05
5 *85:8 *173:22 0.000377666
*RES
1 *1351:X *85:8 31.7414 
2 *85:8 *1419:D 23 
*END

*D_NET *86 0.010868
*CONN
*I *1273:A2 I *D sky130_fd_sc_hd__a221o_1
*I *1212:B I *D sky130_fd_sc_hd__nand2_1
*I *1262:A2 I *D sky130_fd_sc_hd__a221o_1
*I *1248:A2 I *D sky130_fd_sc_hd__a22o_1
*I *1227:A2 I *D sky130_fd_sc_hd__a221o_1
*I *1211:X O *D sky130_fd_sc_hd__and4_1
*CAP
1 *1273:A2 0
2 *1212:B 2.32701e-05
3 *1262:A2 0
4 *1248:A2 0
5 *1227:A2 0
6 *1211:X 0.000193067
7 *86:74 0.000684133
8 *86:52 0.000440263
9 *86:37 0.000999846
10 *86:27 0.000815679
11 *86:25 0.00114507
12 *86:16 0.000557105
13 *86:6 0.000978281
14 *1212:B *1212:A 5.3304e-05
15 *1212:B *1213:S 5.3304e-05
16 *86:6 *210:52 0.000255642
17 *86:16 *1224:B_N 3.47879e-05
18 *86:16 *1227:B2 7.6351e-05
19 *86:16 *95:18 1.32314e-05
20 *86:16 *95:33 8.71694e-05
21 *86:16 *192:23 7.56417e-05
22 *86:16 *197:105 4.6318e-06
23 *86:16 *198:12 5.34915e-05
24 *86:16 *202:16 2.02872e-05
25 *86:16 *209:98 4.10817e-05
26 *86:16 *210:29 8.94487e-05
27 *86:16 *210:52 0.000135037
28 *86:25 *160:25 0
29 *86:25 *234:25 0.000298718
30 *86:27 *160:25 0
31 *86:27 *234:25 0.000362956
32 *86:37 *1248:A1 0.000274388
33 *86:37 *1248:B2 0.000354122
34 *86:37 *160:25 0
35 *86:37 *206:28 0.000266014
36 *86:37 *234:25 0.000271373
37 *86:52 *1215:A1 0.000163361
38 *86:52 *1262:A1 0.00026569
39 *86:52 *1262:B1 0
40 *86:52 *1355:RESET_B 4.3407e-05
41 *86:52 *118:8 5.56279e-05
42 *86:52 *132:12 1.47563e-05
43 *86:52 *171:81 0.000383796
44 *86:52 *179:56 1.7992e-05
45 *86:52 *206:28 0.000141215
46 *86:74 *1273:B1 0.000203133
47 *86:74 *1321:A1 4.00854e-05
48 *86:74 *201:88 0.000609769
49 *19:10 *86:37 0.000271476
*RES
1 *1211:X *86:6 26.0036 
2 *86:6 *86:16 38.9796 
3 *86:16 *1227:A2 23 
4 *86:6 *86:25 19.3707 
5 *86:25 *86:27 5.075 
6 *86:27 *86:37 28.5057 
7 *86:37 *1248:A2 23 
8 *86:37 *86:52 40.2018 
9 *86:52 *1262:A2 23 
10 *86:27 *1212:B 38.6214 
11 *86:25 *86:74 28.5523 
12 *86:74 *1273:A2 23 
*END

*D_NET *87 0.00407454
*CONN
*I *1216:S I *D sky130_fd_sc_hd__mux2_1
*I *1214:S I *D sky130_fd_sc_hd__mux2_1
*I *1215:S I *D sky130_fd_sc_hd__mux2_1
*I *1213:S I *D sky130_fd_sc_hd__mux2_1
*I *1212:Y O *D sky130_fd_sc_hd__nand2_1
*CAP
1 *1216:S 0.000214483
2 *1214:S 0
3 *1215:S 0.000392715
4 *1213:S 0.000136852
5 *1212:Y 0
6 *87:19 0.000487985
7 *87:17 0.000740914
8 *87:4 0.000568013
9 *1213:S *1212:A 2.02872e-05
10 *1215:S *1214:A0 1.37246e-05
11 *1215:S *1215:A0 4.9662e-05
12 *1215:S *1410:RESET_B 1.41077e-05
13 *1215:S *106:35 1.14452e-05
14 *1215:S *106:45 0
15 *1215:S *189:21 0
16 *1215:S *213:14 0.0004057
17 *1215:S *240:10 8.4047e-05
18 *1216:S *1216:A0 0.00010018
19 *1216:S *106:35 0.00030643
20 *1216:S *140:6 0.000123934
21 *1216:S *160:25 0
22 *1216:S *186:97 3.70187e-05
23 *1216:S *189:8 0
24 *1216:S *189:21 0
25 *87:17 *1212:A 1.14876e-05
26 *87:17 *1355:CLK 7.88926e-05
27 *87:19 *106:35 0.000135547
28 *87:19 *189:21 0
29 *1212:B *1213:S 5.3304e-05
30 *1355:D *87:17 3.46673e-05
31 *21:10 *1216:S 5.31444e-05
*RES
1 *1212:Y *87:4 23 
2 *87:4 *1213:S 25.4236 
3 *87:4 *87:17 20.8621 
4 *87:17 *87:19 1.90571 
5 *87:19 *1215:S 46.5136 
6 *87:19 *1214:S 38 
7 *87:17 *1216:S 44.5457 
*END

*D_NET *88 0.0107627
*CONN
*I *1219:A2 I *D sky130_fd_sc_hd__a22o_1
*I *1250:A2 I *D sky130_fd_sc_hd__a221o_1
*I *1270:A2 I *D sky130_fd_sc_hd__a221o_1
*I *1312:B I *D sky130_fd_sc_hd__nand2_1
*I *1259:A2 I *D sky130_fd_sc_hd__a221o_1
*I *1217:X O *D sky130_fd_sc_hd__and4b_2
*CAP
1 *1219:A2 0
2 *1250:A2 0.000465098
3 *1270:A2 0
4 *1312:B 0
5 *1259:A2 0
6 *1217:X 0.000459537
7 *88:72 0.000309514
8 *88:50 9.15438e-05
9 *88:42 0.00107917
10 *88:36 0.000852597
11 *88:27 0.000361581
12 *88:12 0.000357132
13 *88:8 0.000475644
14 *1250:A2 *1250:A1 2.02712e-05
15 *1250:A2 *1250:B2 8.05137e-05
16 *1250:A2 *1253:A 0
17 *1250:A2 *97:22 0.000276346
18 *88:8 *1394:RESET_B 0.000117254
19 *88:8 *92:10 3.71198e-05
20 *88:8 *92:27 0.000178846
21 *88:8 *92:36 6.07611e-06
22 *88:8 *97:22 0
23 *88:8 *97:35 0
24 *88:8 *184:89 0.000169185
25 *88:8 *209:119 1.01436e-05
26 *88:12 *172:67 1.06533e-05
27 *88:12 *269:12 3.32734e-05
28 *88:27 *1312:A 0
29 *88:27 *151:8 9.84794e-05
30 *88:27 *151:18 5.50106e-05
31 *88:27 *172:67 0.000181316
32 *88:27 *205:31 0.000358144
33 *88:27 *269:12 0.000162398
34 *88:36 *151:8 4.08664e-05
35 *88:36 *205:31 5.3304e-05
36 *88:42 *97:22 0.000135037
37 *88:42 *142:10 0.000931555
38 *88:42 *207:128 0.000929314
39 *88:50 *1270:A1 0.000242343
40 *88:50 *101:26 4.10817e-05
41 *88:50 *171:125 8.4047e-05
42 *88:50 *207:128 3.97296e-05
43 *88:72 *1364:CLK 0.000140259
44 *88:72 *142:10 0.000415396
45 *88:72 *145:52 0.000169297
46 *88:72 *169:33 0.000654134
47 *88:72 *171:135 9.41704e-05
48 *88:72 *207:128 0.000423298
49 *56:14 *88:27 0.000122053
*RES
1 *1217:X *88:8 49.0614 
2 *88:8 *88:12 15.3832 
3 *88:12 *1259:A2 23 
4 *88:12 *88:27 10.5539 
5 *88:27 *1312:B 23 
6 *88:27 *88:36 15.6214 
7 *88:36 *88:42 29.0443 
8 *88:42 *88:50 33.1175 
9 *88:50 *1270:A2 23 
10 *88:42 *1250:A2 30.2345 
11 *88:36 *88:72 28.0707 
12 *88:72 *1219:A2 23 
*END

*D_NET *89 0.00702567
*CONN
*I *1270:B1 I *D sky130_fd_sc_hd__a221o_1
*I *1249:A2 I *D sky130_fd_sc_hd__a22o_1
*I *1470:A I *D sky130_fd_sc_hd__clkbuf_2
*I *1218:Y O *D sky130_fd_sc_hd__nor4b_1
*CAP
1 *1270:B1 9.11551e-05
2 *1249:A2 0
3 *1470:A 0
4 *1218:Y 0.000595826
5 *89:33 0.00101609
6 *89:25 0.0016313
7 *89:12 0.00111988
8 *1270:B1 *1270:B2 0.00010394
9 *1270:B1 *101:26 1.59094e-05
10 *1270:B1 *142:10 0.000111852
11 *89:12 *1218:C 3.22879e-05
12 *89:12 *1232:B 2.66101e-05
13 *89:12 *169:8 0.00010018
14 *89:12 *197:139 2.02517e-05
15 *89:12 *198:38 0.000114604
16 *89:12 *198:45 0.000162607
17 *89:12 *199:53 4.34876e-05
18 *89:25 *152:29 6.343e-05
19 *89:25 *169:8 0.00010018
20 *89:33 *1270:B2 0.000142818
21 *89:33 *1286:A1 0.000187707
22 *89:33 *1317:A 5.3304e-05
23 *89:33 *1317:B 5.50106e-05
24 *89:33 *1321:S 0
25 *89:33 *102:37 0.000135134
26 *89:33 *103:79 6.00453e-05
27 *89:33 *112:8 0.000223698
28 *89:33 *119:10 0.00030974
29 *89:33 *141:10 3.16665e-05
30 *89:33 *142:10 0.000446723
31 *89:33 *152:8 1.40958e-05
32 *89:33 *180:59 1.61361e-05
*RES
1 *1218:Y *89:12 32.7357 
2 *89:12 *1470:A 23 
3 *89:12 *89:25 22.8093 
4 *89:25 *89:33 36.0664 
5 *89:33 *1249:A2 23 
6 *89:25 *1270:B1 40.175 
*END

*D_NET *90 0.000725112
*CONN
*I *1242:A I *D sky130_fd_sc_hd__or3_1
*I *1219:X O *D sky130_fd_sc_hd__a22o_1
*CAP
1 *1242:A 0
2 *1219:X 0.000150151
3 *90:10 0.000150151
4 *90:10 *112:12 0.000141879
5 *90:10 *169:33 0.000141052
6 *90:10 *204:16 0.000141879
*RES
1 *1219:X *90:10 41.48 
2 *90:10 *1242:A 38 
*END

*D_NET *91 0.00204709
*CONN
*I *1232:C I *D sky130_fd_sc_hd__and3_2
*I *1231:B I *D sky130_fd_sc_hd__and3b_2
*I *1221:C I *D sky130_fd_sc_hd__and3b_2
*I *1220:Y O *D sky130_fd_sc_hd__nor2_1
*CAP
1 *1232:C 0
2 *1231:B 9.30424e-05
3 *1221:C 0.000185231
4 *1220:Y 0
5 *91:48 0.000129768
6 *91:14 0.000512446
7 *91:4 0.000363941
8 *1221:C *1221:A_N 5.73018e-05
9 *1221:C *117:18 0
10 *1221:C *199:80 2.05503e-05
11 *1221:C *201:122 2.47015e-05
12 *1231:B *102:10 3.92407e-05
13 *1231:B *102:66 0.000162272
14 *1231:B *199:49 8.94394e-05
15 *1231:B *199:80 0.000118481
16 *91:14 *1221:A_N 5.3304e-05
17 *91:14 *102:66 9.86551e-06
18 *91:14 *117:18 0
19 *91:14 *198:49 2.05503e-05
20 *91:48 *1221:A_N 1.24376e-05
21 *91:48 *137:10 2.98648e-05
22 *91:48 *198:49 3.83778e-05
23 *91:48 *210:65 8.62783e-05
*RES
1 *1220:Y *91:4 23 
2 *91:4 *91:14 24.2561 
3 *91:14 *1221:C 47.2168 
4 *91:14 *1231:B 48.7861 
5 *91:4 *91:48 32.2993 
6 *91:48 *1232:C 23 
*END

*D_NET *92 0.011013
*CONN
*I *1223:A2 I *D sky130_fd_sc_hd__a22o_1
*I *1297:B I *D sky130_fd_sc_hd__nand2_2
*I *1268:A2 I *D sky130_fd_sc_hd__a221o_1
*I *1259:B1 I *D sky130_fd_sc_hd__a221o_1
*I *1251:A2 I *D sky130_fd_sc_hd__a221o_1
*I *1221:X O *D sky130_fd_sc_hd__and3b_2
*CAP
1 *1223:A2 0.000214237
2 *1297:B 0
3 *1268:A2 0
4 *1259:B1 0
5 *1251:A2 0
6 *1221:X 0.000208771
7 *92:54 0.000262967
8 *92:42 0.000583476
9 *92:36 0.00117772
10 *92:27 0.00106036
11 *92:18 0.000596956
12 *92:10 0.00122311
13 *1223:A2 *94:12 5.50049e-05
14 *1223:A2 *133:10 0
15 *1223:A2 *168:31 0
16 *1223:A2 *204:80 0.000141954
17 *1223:A2 *255:31 0
18 *92:10 *1226:C 0.000166513
19 *92:10 *101:26 9.41704e-05
20 *92:10 *102:66 8.32902e-05
21 *92:10 *137:10 9.65021e-05
22 *92:10 *201:128 0.000166513
23 *92:10 *209:119 2.3529e-05
24 *92:18 *1251:B2 0
25 *92:18 *1454:A 9.84851e-05
26 *92:18 *1468:A 0.000127821
27 *92:18 *121:10 0.000165525
28 *92:18 *166:8 9.91165e-05
29 *92:18 *167:31 0.000139352
30 *92:18 *170:29 6.9279e-05
31 *92:18 *196:100 0.000137651
32 *92:18 *196:115 0.000565539
33 *92:18 *208:8 2.64616e-05
34 *92:27 *1295:A0 0
35 *92:27 *1394:RESET_B 6.16039e-05
36 *92:27 *102:66 0.000110668
37 *92:27 *127:10 8.16253e-05
38 *92:27 *273:14 0.000219882
39 *92:36 *97:35 0
40 *92:36 *126:8 0.000110922
41 *92:36 *128:8 0
42 *92:36 *132:26 2.43996e-05
43 *92:36 *133:10 0
44 *92:36 *168:31 0
45 *92:36 *172:50 0
46 *92:36 *172:52 0
47 *92:36 *184:89 0
48 *92:36 *257:8 4.08641e-05
49 *92:42 *1431:A 0.000389772
50 *92:42 *186:76 0.000528927
51 *92:42 *204:80 0.00043586
52 *92:42 *204:93 4.60312e-05
53 *92:54 *1268:A1 5.61046e-05
54 *92:54 *1288:S 9.67842e-05
55 *92:54 *1290:S 1.83667e-05
56 *92:54 *136:8 0.000394988
57 *92:54 *146:19 7.81073e-05
58 *92:54 *146:44 2.81627e-05
59 *92:54 *168:25 1.41129e-05
60 *92:54 *196:75 0.000212621
61 *92:54 *208:62 0.000256886
62 *88:8 *92:10 3.71198e-05
63 *88:8 *92:27 0.000178846
64 *88:8 *92:36 6.07611e-06
*RES
1 *1221:X *92:10 43.8207 
2 *92:10 *92:18 30.3182 
3 *92:18 *1251:A2 23 
4 *92:10 *92:27 9.92214 
5 *92:27 *1259:B1 38 
6 *92:27 *92:36 11.0614 
7 *92:36 *92:42 25.6471 
8 *92:42 *92:54 38.7518 
9 *92:54 *1268:A2 23 
10 *92:42 *1297:B 23 
11 *92:36 *1223:A2 42.5364 
*END

*D_NET *93 0.00678088
*CONN
*I *1475:A I *D sky130_fd_sc_hd__buf_1
*I *1267:A2 I *D sky130_fd_sc_hd__a22o_1
*I *1245:A2 I *D sky130_fd_sc_hd__a22o_1
*I *1222:Y O *D sky130_fd_sc_hd__nor4b_1
*CAP
1 *1475:A 0
2 *1267:A2 7.92059e-05
3 *1245:A2 4.64377e-05
4 *1222:Y 0.000268373
5 *93:46 0.000576597
6 *93:29 0.000655803
7 *93:27 0.000756828
8 *93:14 0.000803266
9 *93:12 0.000268373
10 *1245:A2 *173:101 7.43845e-05
11 *1245:A2 *176:38 0.000139974
12 *93:12 *1222:A 5.50049e-05
13 *93:12 *1222:D_N 2.94268e-05
14 *93:12 *99:33 5.15762e-05
15 *93:12 *149:24 8.10864e-05
16 *93:12 *197:61 2.26406e-05
17 *93:12 *200:65 5.41385e-05
18 *93:12 *204:113 0
19 *93:27 *1307:A 2.11066e-05
20 *93:27 *150:14 0.000155749
21 *93:27 *150:18 0
22 *93:27 *173:101 0.000248145
23 *93:27 *176:38 0.000257343
24 *93:27 *204:105 0.000490454
25 *93:27 *204:113 0.000796649
26 *93:27 *263:14 0
27 *93:46 *1431:A 0.000616664
28 *93:46 *100:50 0
29 *93:46 *135:10 5.67058e-05
30 *93:46 *183:61 9.8971e-06
31 *93:46 *191:118 0.000165049
*RES
1 *1222:Y *93:12 43.2614 
2 *93:12 *93:14 15 
3 *93:14 *1245:A2 24.5743 
4 *93:14 *93:27 35.4036 
5 *93:27 *93:29 15 
6 *93:29 *1267:A2 24.1186 
7 *93:29 *93:46 41.9314 
8 *93:46 *1475:A 23 
*END

*D_NET *94 0.00419812
*CONN
*I *1242:B I *D sky130_fd_sc_hd__or3_1
*I *1223:X O *D sky130_fd_sc_hd__a22o_1
*CAP
1 *1242:B 0
2 *1223:X 0.000971205
3 *94:20 0.000497953
4 *94:12 0.00146916
5 *94:12 *1243:A2 7.74026e-05
6 *94:12 *1275:B2 0.000315852
7 *94:12 *97:52 9.73748e-05
8 *94:12 *136:8 3.79251e-05
9 *94:12 *204:63 5.50106e-05
10 *94:12 *204:80 0.000137893
11 *94:20 *185:52 8.4047e-05
12 *94:20 *186:72 0.000399291
13 *94:20 *195:54 0
14 *94:20 *195:56 0
15 *94:20 *207:128 0
16 *1223:A2 *94:12 5.50049e-05
*RES
1 *1223:X *94:12 39.0536 
2 *94:12 *94:20 38.4514 
3 *94:20 *1242:B 23 
*END

*D_NET *95 0.00864914
*CONN
*I *1256:A2 I *D sky130_fd_sc_hd__a22o_1
*I *1267:B1 I *D sky130_fd_sc_hd__a22o_1
*I *1302:B I *D sky130_fd_sc_hd__nand2_2
*I *1227:B1 I *D sky130_fd_sc_hd__a221o_1
*I *1247:A2 I *D sky130_fd_sc_hd__a221o_1
*I *1224:X O *D sky130_fd_sc_hd__and4bb_2
*CAP
1 *1256:A2 0.000189952
2 *1267:B1 0
3 *1302:B 0.000247686
4 *1227:B1 0
5 *1247:A2 3.77636e-05
6 *1224:X 0.000191427
7 *95:65 0.000222373
8 *95:46 0.00123478
9 *95:42 0.00197249
10 *95:33 0.00124437
11 *95:18 0.000362954
12 *95:12 0.000290068
13 *1247:A2 *1247:A1 2.02517e-05
14 *1247:A2 *198:12 0
15 *1256:A2 *100:42 0.000109237
16 *1256:A2 *125:8 5.41288e-05
17 *1256:A2 *191:118 5.69892e-05
18 *1302:B *1306:S 2.33476e-05
19 *1302:B *204:126 1.12863e-05
20 *95:12 *1224:D 0.000136743
21 *95:12 *115:14 7.81176e-05
22 *95:12 *116:14 0.000163361
23 *95:12 *209:98 0.000136743
24 *95:18 *1247:A1 9.58714e-05
25 *95:18 *197:95 9.41704e-05
26 *95:33 *1227:A1 0.000212055
27 *95:33 *198:12 7.53384e-06
28 *95:33 *202:16 0
29 *95:33 *209:98 3.3123e-05
30 *95:42 *100:8 6.28488e-05
31 *95:42 *100:27 4.83941e-05
32 *95:42 *100:42 0.000122059
33 *95:42 *182:19 0
34 *95:42 *182:29 0
35 *95:42 *182:92 0
36 *95:42 *191:105 0.000220569
37 *95:42 *191:118 3.34818e-06
38 *95:42 *192:23 8.32902e-05
39 *95:42 *202:8 0
40 *95:42 *202:10 0
41 *95:42 *209:98 3.20914e-05
42 *95:42 *210:29 0
43 *95:42 *256:10 4.08641e-05
44 *95:42 *256:20 0.000360011
45 *95:46 *204:103 0
46 *95:65 *1306:S 0
47 *95:65 *193:55 9.96237e-05
48 *95:65 *204:105 0.000206455
49 *40:10 *95:42 0
50 *41:8 *95:42 4.23714e-05
51 *52:10 *95:65 0
52 *86:16 *95:18 1.32314e-05
53 *86:16 *95:33 8.71694e-05
*RES
1 *1224:X *95:12 42.4536 
2 *95:12 *95:18 17.5479 
3 *95:18 *1247:A2 24.0927 
4 *95:18 *95:33 20.0129 
5 *95:33 *1227:B1 38 
6 *95:33 *95:42 22.8582 
7 *95:42 *95:46 9.8592 
8 *95:46 *1302:B 46.8923 
9 *95:46 *95:65 28.6032 
10 *95:65 *1267:B1 23 
11 *95:42 *1256:A2 42.4846 
*END

*D_NET *96 0.000778288
*CONN
*I *1469:A I *D sky130_fd_sc_hd__buf_1
*I *1227:C1 I *D sky130_fd_sc_hd__a221o_1
*I *1225:Y O *D sky130_fd_sc_hd__nor4_1
*CAP
1 *1469:A 7.4246e-05
2 *1227:C1 0
3 *1225:Y 0.000113857
4 *96:8 0.000188103
5 *1469:A *1225:C 1.22822e-05
6 *1469:A *1225:D 9.5877e-05
7 *1469:A *200:122 6.17437e-06
8 *1469:A *209:98 9.00923e-05
9 *96:8 *1225:C 9.5877e-05
10 *96:8 *1227:B2 5.90675e-06
11 *96:8 *209:98 0
12 *96:8 *210:29 9.58714e-05
*RES
1 *1225:Y *96:8 26.3764 
2 *96:8 *1227:C1 23 
3 *96:8 *1469:A 26.0036 
*END

*D_NET *97 0.0125655
*CONN
*I *1275:A2 I *D sky130_fd_sc_hd__o22a_1
*I *1243:A2 I *D sky130_fd_sc_hd__o21ba_1
*I *1265:A2 I *D sky130_fd_sc_hd__o21ba_1
*I *1254:A2 I *D sky130_fd_sc_hd__o21ba_1
*I *1226:X O *D sky130_fd_sc_hd__or4_2
*CAP
1 *1275:A2 0
2 *1243:A2 0.000764583
3 *1265:A2 0
4 *1254:A2 0
5 *1226:X 0
6 *97:52 0.00102692
7 *97:35 0.00123464
8 *97:22 0.00140032
9 *97:6 0.00237262
10 *1243:A2 *1243:A1 0.000117712
11 *1243:A2 *1275:B2 9.00922e-05
12 *1243:A2 *1278:A1 0.000246123
13 *1243:A2 *1278:S 0.000701923
14 *1243:A2 *136:8 4.00259e-06
15 *1243:A2 *204:51 0.000999333
16 *97:22 *1250:A1 0.000264559
17 *97:22 *1250:B1 5.50106e-05
18 *97:22 *1250:B2 4.70381e-05
19 *97:22 *1254:B1_N 4.00259e-06
20 *97:22 *123:8 0.000265466
21 *97:22 *196:115 0.000120405
22 *97:22 *202:42 2.22079e-05
23 *97:22 *216:26 5.55687e-05
24 *97:35 *1366:RESET_B 6.0093e-05
25 *97:35 *128:8 0
26 *97:35 *132:26 0
27 *97:35 *133:10 0.000178809
28 *97:35 *169:12 0.000996133
29 *97:35 *184:89 0.000122297
30 *97:35 *194:93 0.000242666
31 *97:35 *196:115 8.62783e-05
32 *97:35 *204:59 4.6318e-06
33 *97:35 *205:31 0
34 *97:35 *217:12 6.93553e-05
35 *97:35 *269:12 3.31683e-05
36 *97:52 *1275:B2 2.65879e-05
37 *97:52 *136:8 0.000282207
38 *97:52 *143:8 1.14452e-05
39 *97:52 *204:59 0
40 *97:52 *204:80 1.37232e-05
41 *97:52 *205:31 5.94125e-05
42 *1250:A2 *97:22 0.000276346
43 *88:8 *97:22 0
44 *88:8 *97:35 0
45 *88:42 *97:22 0.000135037
46 *92:36 *97:35 0
47 *94:12 *1243:A2 7.74026e-05
48 *94:12 *97:52 9.73748e-05
*RES
1 *1226:X *97:6 38 
2 *97:6 *97:22 40.4993 
3 *97:22 *1254:A2 23 
4 *97:6 *97:35 40.2093 
5 *97:35 *1265:A2 23 
6 *97:35 *97:52 35.9243 
7 *97:52 *1243:A2 44.9779 
8 *97:52 *1275:A2 23 
*END

*D_NET *98 0.00149607
*CONN
*I *1230:C1 I *D sky130_fd_sc_hd__a221o_1
*I *1227:X O *D sky130_fd_sc_hd__a221o_1
*CAP
1 *1230:C1 0
2 *1227:X 0.000417532
3 *98:18 0.000224827
4 *98:12 0.000642358
5 *98:12 *192:23 9.85586e-06
6 *98:12 *210:29 2.26406e-05
7 *98:18 *1303:A1 0
8 *98:18 *115:14 1.52362e-05
9 *98:18 *197:61 0
10 *98:18 *197:74 0.000105072
11 *98:18 *197:78 4.71078e-05
12 *98:18 *209:37 0
13 *98:18 *263:14 1.14452e-05
*RES
1 *1227:X *98:12 47.1499 
2 *98:12 *98:18 27.8989 
3 *98:18 *1230:C1 23 
*END

*D_NET *99 0.00938189
*CONN
*I *1258:A2 I *D sky130_fd_sc_hd__a221o_1
*I *1269:A2 I *D sky130_fd_sc_hd__a221o_1
*I *1230:A2 I *D sky130_fd_sc_hd__a221o_1
*I *1292:B I *D sky130_fd_sc_hd__nand2_2
*I *1245:B1 I *D sky130_fd_sc_hd__a22o_1
*I *1228:X O *D sky130_fd_sc_hd__and4bb_2
*CAP
1 *1258:A2 0.000376733
2 *1269:A2 0.000292164
3 *1230:A2 2.90203e-05
4 *1292:B 0
5 *1245:B1 0
6 *1228:X 0
7 *99:55 0.00170568
8 *99:40 0.00151472
9 *99:33 0.000132966
10 *99:23 0.000790722
11 *99:16 0.000380652
12 *99:4 0.000589486
13 *1230:A2 *1230:B1 5.23796e-05
14 *1258:A2 *1258:A1 0.000120222
15 *1258:A2 *1295:A0 1.01436e-05
16 *1258:A2 *102:66 0
17 *1258:A2 *167:41 0.000377181
18 *1258:A2 *186:91 3.14151e-05
19 *1258:A2 *208:39 6.65155e-05
20 *1258:A2 *253:8 1.22803e-05
21 *1269:A2 *101:26 2.02063e-05
22 *1269:A2 *102:66 0
23 *1269:A2 *137:10 1.32314e-05
24 *1269:A2 *186:91 1.59208e-05
25 *1269:A2 *186:97 1.02387e-05
26 *1269:A2 *197:139 0.000108672
27 *1269:A2 *199:80 0
28 *1269:A2 *199:93 0
29 *1269:A2 *201:122 6.07611e-06
30 *99:16 *1230:A1 0.000187069
31 *99:16 *1245:A1 4.78593e-05
32 *99:16 *1245:B2 5.3304e-05
33 *99:16 *1372:RESET_B 0
34 *99:16 *147:12 0.000140935
35 *99:16 *147:27 0.000163352
36 *99:16 *214:41 0.000343064
37 *99:16 *251:12 2.04934e-05
38 *99:23 *1230:A1 0.000254324
39 *99:33 *1222:A 8.4047e-05
40 *99:33 *197:61 3.83778e-05
41 *99:33 *200:65 1.5769e-05
42 *99:40 *1230:A1 0.000553046
43 *99:40 *1230:B1 1.67285e-05
44 *99:55 *1230:B1 0.000190555
45 *99:55 *101:10 1.37047e-05
46 *99:55 *182:10 0.000107238
47 *99:55 *186:91 1.02561e-05
48 *99:55 *209:106 0.000348911
49 *1375:D *99:55 8.46456e-05
50 *93:12 *99:33 5.15762e-05
*RES
1 *1228:X *99:4 23 
2 *99:4 *99:16 38.845 
3 *99:16 *1245:B1 23 
4 *99:4 *99:23 3.00357 
5 *99:23 *99:33 32.6721 
6 *99:33 *1292:B 23 
7 *99:23 *99:40 6.84089 
8 *99:40 *1230:A2 23.8493 
9 *99:40 *99:55 29.878 
10 *99:55 *1269:A2 43.6757 
11 *99:55 *1258:A2 46.7 
*END

*D_NET *100 0.00655789
*CONN
*I *1256:B1 I *D sky130_fd_sc_hd__a22o_1
*I *1268:B1 I *D sky130_fd_sc_hd__a221o_1
*I *1307:B I *D sky130_fd_sc_hd__nand2_1
*I *1251:B1 I *D sky130_fd_sc_hd__a221o_1
*I *1230:B1 I *D sky130_fd_sc_hd__a221o_1
*I *1229:X O *D sky130_fd_sc_hd__and4bb_1
*CAP
1 *1256:B1 0
2 *1268:B1 3.15503e-05
3 *1307:B 0.000123742
4 *1251:B1 0
5 *1230:B1 0.000191534
6 *1229:X 0.000119831
7 *100:50 0.000462845
8 *100:42 0.00103434
9 *100:27 0.000811713
10 *100:8 0.000396291
11 *1230:B1 *1230:A1 5.3304e-05
12 *1230:B1 *101:10 4.05196e-05
13 *1268:B1 *1268:C1 5.50106e-05
14 *1268:B1 *1311:A1 3.22879e-05
15 *1268:B1 *146:44 1.76557e-05
16 *1268:B1 *208:62 0.000172996
17 *1268:B1 *266:14 3.02431e-05
18 *1307:B *1268:C1 0.000395889
19 *1307:B *150:6 2.32004e-05
20 *1307:B *208:62 0.000226295
21 *1307:B *208:68 0.0002313
22 *100:8 *1375:CLK 1.83564e-05
23 *100:8 *116:14 0
24 *100:8 *210:29 4.6318e-06
25 *100:27 *1375:CLK 7.45175e-05
26 *100:27 *256:20 1.14452e-05
27 *100:42 *1256:B2 2.02517e-05
28 *100:42 *1375:CLK 0.000108263
29 *100:42 *150:18 0
30 *100:42 *191:68 0.000101897
31 *100:42 *191:90 0.000138469
32 *100:42 *256:20 0.000721835
33 *100:42 *261:25 1.76557e-05
34 *100:42 *265:10 0
35 *100:50 *150:14 0
36 *100:50 *183:61 0.000237171
37 *100:50 *191:118 0
38 *100:50 *261:25 3.22879e-05
39 *100:50 *265:10 1.83564e-05
40 *1230:A2 *1230:B1 5.23796e-05
41 *1256:A2 *100:42 0.000109237
42 *93:46 *100:50 0
43 *95:42 *100:8 6.28488e-05
44 *95:42 *100:27 4.83941e-05
45 *95:42 *100:42 0.000122059
46 *99:40 *1230:B1 1.67285e-05
47 *99:55 *1230:B1 0.000190555
*RES
1 *1229:X *100:8 40.61 
2 *100:8 *1230:B1 43.1164 
3 *100:8 *100:27 2.25786 
4 *100:27 *1251:B1 38 
5 *100:27 *100:42 34.4714 
6 *100:42 *100:50 36.0486 
7 *100:50 *1307:B 28.4064 
8 *100:50 *1268:B1 25.0507 
9 *100:42 *1256:B1 23 
*END

*D_NET *101 0.0084498
*CONN
*I *1241:D1 I *D sky130_fd_sc_hd__a2111o_1
*I *1230:X O *D sky130_fd_sc_hd__a221o_1
*CAP
1 *1241:D1 0
2 *1230:X 0.000778099
3 *101:32 0.000250602
4 *101:26 0.00204278
5 *101:10 0.00257027
6 *101:10 *182:10 0.000183088
7 *101:10 *196:100 8.62783e-05
8 *101:10 *208:24 8.4047e-05
9 *101:10 *254:10 5.3304e-05
10 *101:26 *1269:C1 2.18409e-05
11 *101:26 *1270:A1 3.23917e-05
12 *101:26 *1270:B2 6.39489e-06
13 *101:26 *1296:A1 4.38068e-06
14 *101:26 *137:10 0.000739745
15 *101:26 *171:121 9.5877e-05
16 *101:26 *208:24 5.50049e-05
17 *101:32 *1241:A1 4.21594e-06
18 *101:32 *1250:B1 0.000408138
19 *101:32 *1250:B2 0.000108951
20 *101:32 *1319:A1 0.000116314
21 *101:32 *102:37 0.000267012
22 *101:32 *112:12 0.000191537
23 *101:32 *220:25 0
24 *1230:B1 *101:10 4.05196e-05
25 *1269:A2 *101:26 2.02063e-05
26 *1270:B1 *101:26 1.59094e-05
27 *1375:D *101:10 0.000123934
28 *88:50 *101:26 4.10817e-05
29 *92:10 *101:26 9.41704e-05
30 *99:55 *101:10 1.37047e-05
*RES
1 *1230:X *101:10 49.3514 
2 *101:10 *101:26 42.3221 
3 *101:26 *101:32 38.9486 
4 *101:32 *1241:D1 23 
*END

*D_NET *102 0.0097729
*CONN
*I *1258:B1 I *D sky130_fd_sc_hd__a221o_1
*I *1250:B1 I *D sky130_fd_sc_hd__a221o_1
*I *1317:B I *D sky130_fd_sc_hd__nand2_2
*I *1241:A2 I *D sky130_fd_sc_hd__a2111o_1
*I *1273:B1 I *D sky130_fd_sc_hd__a221o_1
*I *1231:X O *D sky130_fd_sc_hd__and3b_2
*CAP
1 *1258:B1 0
2 *1250:B1 0.000275535
3 *1317:B 1.56221e-05
4 *1241:A2 0
5 *1273:B1 0.000338203
6 *1231:X 3.34344e-05
7 *102:66 0.000671798
8 *102:37 0.000338857
9 *102:29 0.00205263
10 *102:10 0.00187394
11 *102:8 0.000787116
12 *1250:B1 *1250:B2 0.000110175
13 *1250:B1 *1270:A1 0
14 *1250:B1 *112:12 1.34354e-05
15 *1250:B1 *118:12 0.000292089
16 *1273:B1 *1273:B2 2.85818e-05
17 *1273:B1 *1321:A1 3.46255e-05
18 *1273:B1 *103:8 0
19 *1273:B1 *140:12 3.70187e-05
20 *1273:B1 *199:49 6.1002e-05
21 *1273:B1 *201:92 0
22 *1273:B1 *210:65 0
23 *1317:B *152:8 2.32101e-05
24 *102:8 *1232:B 5.56356e-05
25 *102:10 *199:49 3.11878e-05
26 *102:10 *210:65 0
27 *102:29 *1286:A1 1.39317e-05
28 *102:29 *1286:S 0.000152012
29 *102:29 *104:8 8.84817e-06
30 *102:29 *202:42 1.79538e-05
31 *102:29 *207:117 1.76095e-05
32 *102:29 *207:126 7.9567e-06
33 *102:29 *210:52 5.12992e-05
34 *102:29 *210:65 5.47808e-05
35 *102:37 *1241:A1 0
36 *102:37 *118:12 0.000142075
37 *102:37 *152:8 1.24376e-05
38 *102:66 *167:41 5.50049e-05
39 *102:66 *198:49 3.22336e-05
40 *102:66 *199:80 6.20358e-05
41 *102:66 *199:93 8.51329e-05
42 *102:66 *201:128 0.000215782
43 *102:66 *208:39 1.94693e-05
44 *102:66 *210:65 0
45 *102:66 *273:14 0.000192077
46 *1231:B *102:10 3.92407e-05
47 *1231:B *102:66 0.000162272
48 *1258:A2 *102:66 0
49 *1269:A2 *102:66 0
50 *33:12 *102:29 2.93845e-05
51 *86:74 *1273:B1 0.000203133
52 *89:33 *1317:B 5.50106e-05
53 *89:33 *102:37 0.000135134
54 *91:14 *102:66 9.86551e-06
55 *92:10 *102:66 8.32902e-05
56 *92:27 *102:66 0.000110668
57 *97:22 *1250:B1 5.50106e-05
58 *101:32 *1250:B1 0.000408138
59 *101:32 *102:37 0.000267012
*RES
1 *1231:X *102:8 38.6214 
2 *102:8 *102:10 1.55357 
3 *102:10 *1273:B1 44.5664 
4 *102:10 *102:29 48.7257 
5 *102:29 *102:37 22.5193 
6 *102:37 *1241:A2 23 
7 *102:37 *1317:B 23.6214 
8 *102:29 *1250:B1 46.8657 
9 *102:8 *102:66 29.8521 
10 *102:66 *1258:B1 23 
*END

*D_NET *103 0.0130966
*CONN
*I *1274:A2 I *D sky130_fd_sc_hd__a2111o_1
*I *1249:B1 I *D sky130_fd_sc_hd__a22o_1
*I *1234:A2 I *D sky130_fd_sc_hd__a22o_1
*I *1337:B I *D sky130_fd_sc_hd__nand2_2
*I *1262:B1 I *D sky130_fd_sc_hd__a221o_1
*I *1232:X O *D sky130_fd_sc_hd__and3_2
*CAP
1 *1274:A2 0.00023435
2 *1249:B1 0
3 *1234:A2 3.80122e-05
4 *1337:B 0
5 *1262:B1 0.000608829
6 *1232:X 0.000435186
7 *103:79 0.000745684
8 *103:53 0.00077364
9 *103:45 0.000909984
10 *103:41 0.00106969
11 *103:35 0.000669094
12 *103:29 0.000985598
13 *103:8 0.00182055
14 *1234:A2 *1408:CLK 5.3304e-05
15 *1262:B1 *1271:B1 5.67058e-05
16 *1262:B1 *1355:RESET_B 0
17 *1262:B1 *104:12 0.000189233
18 *1262:B1 *130:22 9.4412e-05
19 *1262:B1 *155:42 2.96369e-05
20 *1262:B1 *171:81 0
21 *1274:A2 *111:32 0.000108672
22 *1274:A2 *118:12 0.00010404
23 *1274:A2 *190:40 0.000313249
24 *103:8 *1273:A1 0.000137174
25 *103:8 *1355:RESET_B 0
26 *103:8 *104:12 0.000216858
27 *103:8 *202:42 0.000189947
28 *103:8 *207:49 0
29 *103:8 *210:65 0.000162152
30 *103:8 *242:10 5.31444e-05
31 *103:29 *1411:RESET_B 9.4646e-06
32 *103:29 *171:121 6.25829e-05
33 *103:29 *180:25 3.59255e-06
34 *103:35 *180:25 0.000193771
35 *103:35 *230:8 0.00019975
36 *103:41 *111:32 6.79006e-05
37 *103:41 *118:12 6.4393e-05
38 *103:41 *175:62 0.000180212
39 *103:45 *105:8 0.000215782
40 *103:45 *111:32 2.34364e-05
41 *103:45 *220:25 0.000269151
42 *103:53 *1327:B 0
43 *103:53 *1329:A1 8.62876e-05
44 *103:53 *1329:S 0.0002246
45 *103:53 *1337:A 3.17516e-05
46 *103:53 *104:44 1.40281e-05
47 *103:53 *111:32 9.28945e-05
48 *103:53 *154:6 8.60475e-05
49 *103:53 *156:16 5.3656e-05
50 *103:53 *174:26 2.24608e-05
51 *103:53 *189:88 0
52 *103:53 *206:115 1.76557e-05
53 *103:53 *220:25 0.000290884
54 *103:79 *1249:A1 2.93845e-05
55 *103:79 *1339:S 0.000189118
56 *103:79 *175:62 8.17328e-05
57 *103:79 *206:129 0.000185096
58 *103:79 *212:29 0.000210376
59 *1273:B1 *103:8 0
60 *1411:D *103:29 0.000100733
61 *77:10 *103:29 3.0647e-05
62 *86:52 *1262:B1 0
63 *89:33 *103:79 6.00453e-05
*RES
1 *1232:X *103:8 49.4136 
2 *103:8 *1262:B1 49.2479 
3 *103:8 *103:29 40.5229 
4 *103:29 *103:35 35.8621 
5 *103:35 *103:41 18.9564 
6 *103:41 *103:45 18.6664 
7 *103:45 *103:53 28.8993 
8 *103:53 *1337:B 23 
9 *103:45 *1234:A2 38.6214 
10 *103:41 *103:79 44.9971 
11 *103:79 *1249:B1 23 
12 *103:35 *1274:A2 44.4421 
*END

*D_NET *104 0.012046
*CONN
*I *1327:B I *D sky130_fd_sc_hd__nand2_1
*I *1252:A2 I *D sky130_fd_sc_hd__a2111o_1
*I *1234:B1 I *D sky130_fd_sc_hd__a22o_1
*I *1271:A2 I *D sky130_fd_sc_hd__a22o_1
*I *1260:A2 I *D sky130_fd_sc_hd__a22o_1
*I *1233:X O *D sky130_fd_sc_hd__and4bb_2
*CAP
1 *1327:B 6.31731e-05
2 *1252:A2 0
3 *1234:B1 0
4 *1271:A2 0
5 *1260:A2 0.000360956
6 *1233:X 0.000285458
7 *104:61 0.000657669
8 *104:44 0.000851907
9 *104:40 0.000870619
10 *104:29 0.000815001
11 *104:12 0.00153
12 *104:8 0.0012527
13 *1260:A2 *1271:B2 0
14 *1260:A2 *1335:A1 4.2573e-05
15 *1260:A2 *1403:CLK 4.6318e-06
16 *1260:A2 *155:42 0
17 *1260:A2 *155:57 0.000141954
18 *1260:A2 *171:34 7.42621e-05
19 *1260:A2 *179:16 0.000132076
20 *1260:A2 *221:14 0.00073928
21 *1260:A2 *225:22 0.000180218
22 *1327:B *1329:S 8.264e-05
23 *1327:B *154:6 3.56477e-05
24 *1327:B *156:16 9.88437e-05
25 *104:8 *202:42 0.000316532
26 *104:12 *1262:B2 0
27 *104:12 *1271:B2 0
28 *104:12 *130:22 5.48395e-05
29 *104:12 *155:42 0
30 *104:12 *190:16 0
31 *104:12 *190:22 0
32 *104:12 *206:20 0.000164291
33 *104:12 *207:78 0
34 *104:12 *229:10 0
35 *104:29 *1262:B2 7.88926e-05
36 *104:29 *1271:A1 2.4754e-05
37 *104:29 *1271:B1 4.75206e-05
38 *104:40 *1271:A1 0.000269775
39 *104:40 *1329:S 0.000176575
40 *104:40 *156:16 0.000211759
41 *104:44 *174:26 9.85586e-06
42 *104:44 *219:23 0.000448982
43 *104:44 *220:25 0.000131067
44 *104:61 *1286:S 0.000137651
45 *104:61 *1318:S 4.95442e-05
46 *104:61 *1365:CLK 0.000182791
47 *104:61 *1409:CLK 5.20305e-05
48 *104:61 *119:10 0.000135557
49 *104:61 *152:25 4.60366e-05
50 *104:61 *175:50 0.00021356
51 *104:61 *175:62 0.000240328
52 *104:61 *206:115 0
53 *104:61 *206:129 6.11183e-05
54 *104:61 *219:23 1.14452e-05
55 *104:61 *220:25 0.000110657
56 *1262:B1 *104:12 0.000189233
57 *58:8 *104:61 0.000110913
58 *67:10 *104:44 0.000110922
59 *102:29 *104:8 8.84817e-06
60 *103:8 *104:12 0.000216858
61 *103:53 *1327:B 0
62 *103:53 *104:44 1.40281e-05
*RES
1 *1233:X *104:8 42.4329 
2 *104:8 *104:12 19.7821 
3 *104:12 *1260:A2 49.2064 
4 *104:12 *104:29 19.4536 
5 *104:29 *1271:A2 23 
6 *104:29 *104:40 13.6507 
7 *104:40 *104:44 21.1314 
8 *104:44 *1234:B1 38 
9 *104:44 *104:61 31.2193 
10 *104:61 *1252:A2 23 
11 *104:40 *1327:B 25.2164 
*END

*D_NET *105 0.00195746
*CONN
*I *1241:B1 I *D sky130_fd_sc_hd__a2111o_1
*I *1234:X O *D sky130_fd_sc_hd__a22o_1
*CAP
1 *1241:B1 0
2 *1234:X 0.00030054
3 *105:8 0.00030054
4 *105:8 *1241:A1 0.000240695
5 *105:8 *1318:A1 8.62876e-05
6 *105:8 *111:32 0.000717716
7 *105:8 *118:12 0
8 *105:8 *220:25 9.59009e-05
9 *103:45 *105:8 0.000215782
*RES
1 *1234:X *105:8 48.005 
2 *105:8 *1241:B1 38 
*END

*D_NET *106 0.0112524
*CONN
*I *1248:B1 I *D sky130_fd_sc_hd__a22o_1
*I *1342:B I *D sky130_fd_sc_hd__nand2_1
*I *1237:A2 I *D sky130_fd_sc_hd__a22o_1
*I *1260:B1 I *D sky130_fd_sc_hd__a22o_1
*I *1269:B1 I *D sky130_fd_sc_hd__a221o_1
*I *1235:X O *D sky130_fd_sc_hd__and4b_2
*CAP
1 *1248:B1 4.74977e-05
2 *1342:B 0
3 *1237:A2 0.000331403
4 *1260:B1 0
5 *1269:B1 0
6 *1235:X 5.17515e-05
7 *106:60 0.00079434
8 *106:47 0.000462937
9 *106:45 0.000698649
10 *106:35 0.00152688
11 *106:20 0.000320724
12 *106:12 0.00154963
13 *106:8 0.000499924
14 *1237:A2 *157:6 2.32004e-05
15 *1237:A2 *171:34 0.000137079
16 *1248:B1 *207:49 2.46922e-05
17 *106:8 *1227:A1 2.79004e-05
18 *106:8 *199:27 3.52397e-05
19 *106:12 *197:105 0.000566278
20 *106:12 *201:88 1.76557e-05
21 *106:20 *1269:C1 2.64616e-05
22 *106:20 *1296:A1 5.3304e-05
23 *106:20 *167:10 0.000108681
24 *106:20 *186:97 3.08224e-05
25 *106:20 *196:100 5.72749e-05
26 *106:20 *197:105 8.4047e-05
27 *106:20 *197:120 0.000307922
28 *106:20 *209:134 0.000283288
29 *106:35 *140:12 0
30 *106:35 *186:97 0.000127569
31 *106:35 *201:88 7.92721e-05
32 *106:35 *201:92 9.03784e-05
33 *106:35 *207:49 1.6873e-05
34 *106:45 *1214:A0 0
35 *106:45 *1263:C1 2.74987e-05
36 *106:45 *110:49 1.27424e-05
37 *106:45 *111:26 8.63734e-05
38 *106:45 *129:10 0
39 *106:45 *155:42 1.10105e-05
40 *106:45 *173:136 0.000503635
41 *106:45 *207:49 0.000145517
42 *106:45 *225:22 0
43 *106:60 *1260:B2 0.000308039
44 *106:60 *1344:A1 0.000110897
45 *106:60 *1344:S 4.2573e-05
46 *106:60 *157:6 0.000613262
47 *106:60 *171:34 0.000449826
48 *106:60 *173:136 3.43831e-05
49 *1215:S *106:35 1.14452e-05
50 *1215:S *106:45 0
51 *1216:S *106:35 0.00030643
52 *20:10 *106:45 7.14905e-05
53 *87:19 *106:35 0.000135547
*RES
1 *1235:X *106:8 39.2014 
2 *106:8 *106:12 21.815 
3 *106:12 *106:20 37.8093 
4 *106:20 *1269:B1 23 
5 *106:12 *106:35 29.0754 
6 *106:35 *106:45 43.4332 
7 *106:45 *106:47 15 
8 *106:47 *1260:B1 23 
9 *106:47 *106:60 13.6714 
10 *106:60 *1237:A2 28.9036 
11 *106:60 *1342:B 23 
12 *106:35 *1248:B1 38.9425 
*END

*D_NET *107 0.00740144
*CONN
*I *1246:A2 I *D sky130_fd_sc_hd__a22o_1
*I *1272:A2 I *D sky130_fd_sc_hd__a22o_1
*I *1261:A2 I *D sky130_fd_sc_hd__a22o_1
*I *1237:B1 I *D sky130_fd_sc_hd__a22o_1
*I *1322:B I *D sky130_fd_sc_hd__nand2_2
*I *1236:X O *D sky130_fd_sc_hd__and4bb_2
*CAP
1 *1246:A2 0.000178712
2 *1272:A2 0
3 *1261:A2 0.000323814
4 *1237:B1 0.000148801
5 *1322:B 0.000135153
6 *1236:X 0.000155684
7 *107:30 0.000576635
8 *107:26 0.00125834
9 *107:18 0.00113231
10 *107:10 0.00082486
11 *1237:B1 *171:34 0.000102313
12 *1246:A2 *109:25 0.000449421
13 *1261:A2 *1261:B1 0.000100276
14 *1261:A2 *1347:A 0.000187692
15 *1261:A2 *1347:B 5.56279e-05
16 *1261:A2 *1348:A0 9.73664e-05
17 *1261:A2 *1418:RESET_B 5.90675e-06
18 *1261:A2 *158:8 5.61255e-06
19 *1261:A2 *158:30 2.18286e-05
20 *1261:A2 *206:44 0.000126451
21 *1261:A2 *235:12 5.50049e-05
22 *1322:B *171:34 4.33562e-05
23 *1322:B *206:69 3.7685e-05
24 *1322:B *214:18 0
25 *107:10 *214:41 6.33614e-05
26 *107:10 *260:35 9.1436e-05
27 *107:18 *153:59 9.58714e-05
28 *107:18 *175:144 2.42041e-05
29 *107:18 *188:80 0
30 *107:18 *214:35 3.70187e-05
31 *107:18 *214:41 7.90568e-05
32 *107:18 *238:21 2.64616e-05
33 *107:26 *109:25 6.07611e-06
34 *107:26 *109:29 0.00040312
35 *107:26 *158:36 5.50934e-05
36 *107:26 *175:123 0
37 *107:26 *175:144 0
38 *107:26 *206:69 6.2763e-06
39 *107:26 *278:25 0.000249909
40 *107:30 *1237:B2 0
41 *107:30 *1416:CLK 0.000110356
42 *107:30 *108:8 0
43 *107:30 *206:69 7.5045e-05
44 *107:30 *235:12 0
45 *71:10 *107:26 0
46 *82:10 *1261:A2 5.53064e-05
*RES
1 *1236:X *107:10 41.0036 
2 *107:10 *107:18 23.3686 
3 *107:18 *107:26 27.5321 
4 *107:26 *107:30 20.7793 
5 *107:30 *1322:B 25.5479 
6 *107:30 *1237:B1 26.0036 
7 *107:26 *1261:A2 45.3121 
8 *107:18 *1272:A2 23 
9 *107:10 *1246:A2 42.9093 
*END

*D_NET *108 0.00035119
*CONN
*I *1240:C1 I *D sky130_fd_sc_hd__a221o_1
*I *1237:X O *D sky130_fd_sc_hd__a22o_1
*CAP
1 *1240:C1 0
2 *1237:X 9.12226e-05
3 *108:8 9.12226e-05
4 *108:8 *223:20 0.000168744
5 *107:30 *108:8 0
*RES
1 *1237:X *108:8 40.2579 
2 *108:8 *1240:C1 38 
*END

*D_NET *109 0.00951262
*CONN
*I *1272:B1 I *D sky130_fd_sc_hd__a22o_1
*I *1240:A2 I *D sky130_fd_sc_hd__a221o_1
*I *1347:B I *D sky130_fd_sc_hd__nand2_1
*I *1261:B1 I *D sky130_fd_sc_hd__a22o_1
*I *1246:B1 I *D sky130_fd_sc_hd__a22o_1
*I *1238:X O *D sky130_fd_sc_hd__and4b_2
*CAP
1 *1272:B1 0
2 *1240:A2 0
3 *1347:B 2.32828e-05
4 *1261:B1 0.000126727
5 *1246:B1 0
6 *1238:X 0.000225633
7 *109:69 0.000705996
8 *109:41 0.000625562
9 *109:29 0.00144508
10 *109:25 0.000742673
11 *109:14 0.000632297
12 *109:10 0.000378789
13 *1261:B1 *1418:RESET_B 7.53384e-06
14 *1261:B1 *158:8 0.000152828
15 *1261:B1 *158:30 5.47983e-06
16 *1347:B *158:8 1.21972e-05
17 *109:10 *1238:C 0.000123924
18 *109:10 *1381:RESET_B 0.000114074
19 *109:10 *173:46 5.31444e-05
20 *109:14 *1246:A1 7.44257e-05
21 *109:14 *276:12 2.64616e-05
22 *109:25 *1246:A1 2.4754e-05
23 *109:25 *1303:A0 1.00084e-05
24 *109:25 *116:6 0.00070272
25 *109:25 *175:144 0.000118547
26 *109:29 *158:36 6.38433e-05
27 *109:29 *238:21 0.000550862
28 *109:29 *278:25 0.000249909
29 *109:41 *173:22 0.000100236
30 *109:41 *214:35 0.000164312
31 *109:69 *1240:A1 1.24376e-05
32 *109:69 *1240:B1 6.33303e-06
33 *109:69 *1333:S 0.000135547
34 *109:69 *1334:S 0.000268833
35 *109:69 *110:10 0.000157582
36 *109:69 *110:14 0.000181119
37 *109:69 *173:22 0.000248484
38 *1246:A2 *109:25 0.000449421
39 *1261:A2 *1261:B1 0.000100276
40 *1261:A2 *1347:B 5.56279e-05
41 *85:8 *109:41 2.64616e-05
42 *107:26 *109:25 6.07611e-06
43 *107:26 *109:29 0.00040312
*RES
1 *1238:X *109:10 42.0807 
2 *109:10 *109:14 17.5271 
3 *109:14 *1246:B1 23 
4 *109:14 *109:25 28.34 
5 *109:25 *109:29 24.3007 
6 *109:29 *109:41 36.9807 
7 *109:41 *1261:B1 26.9979 
8 *109:41 *1347:B 23.6214 
9 *109:29 *109:69 42.6616 
10 *109:69 *1240:A2 23 
11 *109:25 *1272:B1 38 
*END

*D_NET *110 0.00957311
*CONN
*I *1247:B1 I *D sky130_fd_sc_hd__a221o_1
*I *1332:B I *D sky130_fd_sc_hd__nand2_2
*I *1271:B1 I *D sky130_fd_sc_hd__a22o_1
*I *1263:A2 I *D sky130_fd_sc_hd__a211o_1
*I *1240:B1 I *D sky130_fd_sc_hd__a221o_1
*I *1239:X O *D sky130_fd_sc_hd__and4b_2
*CAP
1 *1247:B1 3.85636e-05
2 *1332:B 0
3 *1271:B1 0.000719964
4 *1263:A2 0
5 *1240:B1 0.00017486
6 *1239:X 8.95678e-05
7 *110:59 0.000848848
8 *110:49 0.00142238
9 *110:14 0.00158455
10 *110:10 0.000786653
11 *110:6 0.000798591
12 *1240:B1 *1240:A1 2.86696e-05
13 *1240:B1 *177:76 6.17437e-06
14 *1247:B1 *1247:A1 2.64616e-05
15 *1271:B1 *1262:A1 0.000135037
16 *1271:B1 *1262:B2 0.000309215
17 *1271:B1 *111:12 0
18 *110:6 *1247:A1 6.80211e-05
19 *110:6 *224:20 1.28818e-05
20 *110:10 *1213:A1 0
21 *110:10 *1227:A1 0
22 *110:10 *1334:A1 0.000166513
23 *110:10 *1334:S 1.12487e-05
24 *110:10 *116:14 0.000111852
25 *110:10 *175:70 0
26 *110:10 *178:20 0
27 *110:10 *197:105 1.37246e-05
28 *110:10 *206:84 1.05441e-05
29 *110:10 *207:16 0.000130154
30 *110:10 *224:20 0.000524143
31 *110:14 *1333:S 3.83059e-05
32 *110:14 *206:84 0.000270837
33 *110:49 *1413:CLK 2.93845e-05
34 *110:49 *111:12 0.000215027
35 *110:49 *129:10 7.57281e-06
36 *110:49 *131:12 0.000289228
37 *110:49 *171:81 3.87221e-06
38 *110:49 *179:49 2.05503e-05
39 *1262:B1 *1271:B1 5.67058e-05
40 *1413:D *110:49 0.000103637
41 *18:10 *110:10 0.000114083
42 *19:10 *110:10 0
43 *104:29 *1271:B1 4.75206e-05
44 *106:45 *110:49 1.27424e-05
45 *109:69 *1240:B1 6.33303e-06
46 *109:69 *110:10 0.000157582
47 *109:69 *110:14 0.000181119
*RES
1 *1239:X *110:6 24.5743 
2 *110:6 *110:10 31.6957 
3 *110:10 *110:14 18.6664 
4 *110:14 *1240:B1 26.0657 
5 *110:14 *110:49 47.9355 
6 *110:49 *110:59 17.7032 
7 *110:59 *1263:A2 23 
8 *110:59 *1271:B1 33.4296 
9 *110:10 *1332:B 38 
10 *110:6 *1247:B1 23.6214 
*END

*D_NET *111 0.00846072
*CONN
*I *1241:C1 I *D sky130_fd_sc_hd__a2111o_1
*I *1240:X O *D sky130_fd_sc_hd__a221o_1
*CAP
1 *1241:C1 0
2 *1240:X 0.00104038
3 *111:32 0.00115572
4 *111:26 0.0015966
5 *111:12 0.00148126
6 *111:12 *1413:CLK 1.94812e-05
7 *111:26 *129:10 3.89785e-06
8 *111:26 *155:42 0.000129886
9 *111:26 *207:49 2.62562e-05
10 *111:26 *241:8 8.71791e-05
11 *111:32 *1340:A0 5.50049e-05
12 *111:32 *1340:A1 0.000185218
13 *111:32 *1340:S 9.84794e-05
14 *111:32 *1401:CLK 0.00014196
15 *111:32 *118:12 0
16 *111:32 *156:16 0.000188945
17 *111:32 *189:101 5.0135e-05
18 *111:32 *206:12 0.000139647
19 *111:32 *241:8 0.0002263
20 *1271:B1 *111:12 0
21 *1274:A2 *111:32 0.000108672
22 *1413:D *111:12 7.24365e-05
23 *20:10 *111:26 1.14452e-05
24 *76:10 *111:32 0.000438468
25 *103:41 *111:32 6.79006e-05
26 *103:45 *111:32 2.34364e-05
27 *103:53 *111:32 9.28945e-05
28 *105:8 *111:32 0.000717716
29 *106:45 *111:26 8.63734e-05
30 *110:49 *111:12 0.000215027
*RES
1 *1240:X *111:12 38.1007 
2 *111:12 *111:26 38.4307 
3 *111:26 *111:32 45.1186 
4 *111:32 *1241:C1 38 
*END

*D_NET *112 0.00536771
*CONN
*I *1242:C I *D sky130_fd_sc_hd__or3_1
*I *1241:X O *D sky130_fd_sc_hd__a2111o_1
*CAP
1 *1242:C 0
2 *1241:X 0.000176107
3 *112:12 0.00128634
4 *112:8 0.00146244
5 *112:12 *1219:A1 0.000204337
6 *112:12 *1250:B2 0.000275473
7 *112:12 *1277:B 2.65002e-05
8 *112:12 *1319:A1 0.000114074
9 *112:12 *1364:CLK 6.70914e-05
10 *112:12 *1391:RESET_B 0.000212621
11 *112:12 *121:16 5.13101e-05
12 *112:12 *122:10 0.00028724
13 *112:12 *152:25 3.53571e-05
14 *112:12 *194:32 0.000105154
15 *112:12 *195:56 2.76611e-06
16 *112:12 *204:16 0.000229454
17 *112:12 *205:19 5.76076e-05
18 *112:12 *220:25 4.08641e-05
19 *112:12 *267:10 0.000162422
20 *1250:B1 *112:12 1.34354e-05
21 *55:10 *112:12 0
22 *89:33 *112:8 0.000223698
23 *90:10 *112:12 0.000141879
24 *101:32 *112:12 0.000191537
*RES
1 *1241:X *112:8 40.5271 
2 *112:8 *112:12 45.0771 
3 *112:12 *1242:C 23 
*END

*D_NET *113 0.00059356
*CONN
*I *1244:B1 I *D sky130_fd_sc_hd__a22o_1
*I *1242:X O *D sky130_fd_sc_hd__or3_1
*CAP
1 *1244:B1 0
2 *1242:X 0.000163429
3 *113:10 0.000163429
4 *113:10 *1356:CLK 0
5 *113:10 *185:25 0
6 *113:10 *186:72 0.00010018
7 *113:10 *204:16 0.000166522
*RES
1 *1242:X *113:10 41.3557 
2 *113:10 *1244:B1 38 
*END

*D_NET *114 0.00161651
*CONN
*I *1244:B2 I *D sky130_fd_sc_hd__a22o_1
*I *1243:X O *D sky130_fd_sc_hd__o21ba_1
*CAP
1 *1244:B2 0.000435379
2 *1243:X 0.000102455
3 *114:8 0.000537834
4 *1244:B2 *1244:A2 0.000236146
5 *1244:B2 *204:20 4.04038e-05
6 *114:8 *1356:RESET_B 6.48142e-05
7 *114:8 *162:23 0
8 *114:8 *175:193 4.73585e-05
9 *114:8 *204:32 1.01436e-05
10 *1356:D *1244:B2 0.000141974
*RES
1 *1243:X *114:8 40.2579 
2 *114:8 *1244:B2 47.8807 
*END

*D_NET *115 0.00392909
*CONN
*I *1247:C1 I *D sky130_fd_sc_hd__a221o_1
*I *1245:X O *D sky130_fd_sc_hd__a22o_1
*CAP
1 *1247:C1 0
2 *1245:X 0.000489389
3 *115:14 0.000528573
4 *115:10 0.00101796
5 *115:10 *147:12 0.000354116
6 *115:10 *147:40 0.000257343
7 *115:14 *1251:B2 0
8 *115:14 *1375:CLK 0
9 *115:14 *116:14 7.18528e-05
10 *115:14 *197:74 0.000218962
11 *115:14 *197:78 0.000310163
12 *115:14 *200:87 3.97399e-05
13 *115:14 *200:95 5.06189e-05
14 *115:14 *210:8 0.000320661
15 *115:14 *224:20 1.14452e-05
16 *115:14 *263:14 0.000164905
17 *95:12 *115:14 7.81176e-05
18 *98:18 *115:14 1.52362e-05
*RES
1 *1245:X *115:10 45.4364 
2 *115:10 *115:14 28.5264 
3 *115:14 *1247:C1 23 
*END

*D_NET *116 0.00552902
*CONN
*I *1251:C1 I *D sky130_fd_sc_hd__a221o_1
*I *1246:X O *D sky130_fd_sc_hd__a22o_1
*CAP
1 *1251:C1 0
2 *1246:X 0.00114785
3 *116:14 0.000596009
4 *116:6 0.00174386
5 *116:6 *201:88 0.00011451
6 *116:14 *1224:B_N 0.000154147
7 *116:14 *1251:B2 1.32314e-05
8 *116:14 *1375:CLK 9.28739e-05
9 *116:14 *170:29 1.41077e-05
10 *116:14 *197:105 0.00021356
11 *116:14 *200:95 0.000108293
12 *116:14 *210:8 0.000149128
13 *116:14 *210:29 0.000120422
14 *116:14 *224:20 1.12487e-05
15 *95:12 *116:14 0.000163361
16 *100:8 *116:14 0
17 *109:25 *116:6 0.00070272
18 *110:10 *116:14 0.000111852
19 *115:14 *116:14 7.18528e-05
*RES
1 *1246:X *116:6 39.3436 
2 *116:6 *116:14 43.7957 
3 *116:14 *1251:C1 23 
*END

*D_NET *117 0.0062783
*CONN
*I *1252:B1 I *D sky130_fd_sc_hd__a2111o_1
*I *1247:X O *D sky130_fd_sc_hd__a221o_1
*CAP
1 *1252:B1 0
2 *1247:X 2.57097e-05
3 *117:18 0.00306399
4 *117:10 0.0030897
5 *117:10 *192:23 2.26497e-05
6 *117:10 *197:105 6.12496e-06
7 *117:18 *1365:CLK 1.05658e-05
8 *117:18 *152:25 1.05658e-05
9 *117:18 *200:114 4.89974e-05
10 *1221:C *117:18 0
11 *91:14 *117:18 0
*RES
1 *1247:X *117:10 46.3211 
2 *117:10 *117:18 30.0747 
3 *117:18 *1252:B1 23 
*END

*D_NET *118 0.00527833
*CONN
*I *1250:C1 I *D sky130_fd_sc_hd__a221o_1
*I *1248:X O *D sky130_fd_sc_hd__a22o_1
*CAP
1 *1250:C1 0
2 *1248:X 0.000866606
3 *118:12 0.00103887
4 *118:8 0.00190547
5 *118:8 *1248:A1 1.37232e-05
6 *118:8 *1339:S 0.000174996
7 *118:8 *1341:A0 5.50106e-05
8 *118:8 *175:64 0.000132711
9 *118:8 *206:28 0.000209405
10 *118:8 *207:78 0.00015633
11 *118:12 *1241:A1 0
12 *118:12 *1270:A1 0
13 *118:12 *1274:A1 0
14 *118:12 *1341:A1 0
15 *118:12 *138:8 0
16 *118:12 *156:29 0
17 *118:12 *171:121 0
18 *118:12 *206:12 1.19796e-05
19 *118:12 *207:128 0
20 *1250:B1 *118:12 0.000292089
21 *1274:A2 *118:12 0.00010404
22 *77:10 *118:8 5.50049e-05
23 *86:52 *118:8 5.56279e-05
24 *102:37 *118:12 0.000142075
25 *103:41 *118:12 6.4393e-05
26 *105:8 *118:12 0
27 *111:32 *118:12 0
*RES
1 *1248:X *118:8 40.7936 
2 *118:8 *118:12 35.5693 
3 *118:12 *1250:C1 38 
*END

*D_NET *119 0.00117568
*CONN
*I *1252:C1 I *D sky130_fd_sc_hd__a2111o_1
*I *1249:X O *D sky130_fd_sc_hd__a22o_1
*CAP
1 *1252:C1 0
2 *1249:X 0.000296298
3 *119:10 0.000296298
4 *119:10 *152:25 0.000137788
5 *89:33 *119:10 0.00030974
6 *104:61 *119:10 0.000135557
*RES
1 *1249:X *119:10 43.3857 
2 *119:10 *1252:C1 38 
*END

*D_NET *120 0.000237083
*CONN
*I *1253:A I *D sky130_fd_sc_hd__or3_1
*I *1250:X O *D sky130_fd_sc_hd__a221o_1
*CAP
1 *1253:A 9.9212e-05
2 *1250:X 9.9212e-05
3 *1253:A *1250:A1 1.21972e-05
4 *1253:A *1253:C 2.64616e-05
5 *1253:A *216:26 0
6 *1250:A2 *1253:A 0
*RES
1 *1250:X *1253:A 47.595 
*END

*D_NET *121 0.00731054
*CONN
*I *1253:B I *D sky130_fd_sc_hd__or3_1
*I *1251:X O *D sky130_fd_sc_hd__a221o_1
*CAP
1 *1253:B 0
2 *1251:X 0
3 *121:16 0.000147892
4 *121:10 0.00230244
5 *121:4 0.00215455
6 *121:10 *1454:A 3.71369e-05
7 *121:10 *1468:A 4.93341e-05
8 *121:10 *166:8 0.00138991
9 *121:10 *167:31 4.57742e-05
10 *121:10 *170:29 5.67058e-05
11 *121:10 *208:8 2.64616e-05
12 *121:16 *1252:D1 0.000296017
13 *121:16 *1277:B 2.46345e-05
14 *121:16 *1391:RESET_B 2.71291e-05
15 *121:16 *122:10 8.94487e-05
16 *55:10 *121:10 0.000446275
17 *92:18 *121:10 0.000165525
18 *112:12 *121:16 5.13101e-05
*RES
1 *1251:X *121:4 23 
2 *121:4 *121:10 35.09 
3 *121:10 *121:16 34.3707 
4 *121:16 *1253:B 23 
*END

*D_NET *122 0.00157562
*CONN
*I *1253:C I *D sky130_fd_sc_hd__or3_1
*I *1252:X O *D sky130_fd_sc_hd__a2111o_1
*CAP
1 *1253:C 2.77218e-05
2 *1252:X 0.000331647
3 *122:10 0.000359369
4 *1253:C *1250:A1 5.3304e-05
5 *122:10 *1252:D1 0.00012039
6 *122:10 *1286:S 2.7237e-05
7 *122:10 *152:25 0.000139647
8 *1253:A *1253:C 2.64616e-05
9 *59:10 *122:10 0.000113153
10 *112:12 *122:10 0.00028724
11 *121:16 *122:10 8.94487e-05
*RES
1 *1252:X *122:10 46.99 
2 *122:10 *1253:C 38.6214 
*END

*D_NET *123 0.00143306
*CONN
*I *1255:B1 I *D sky130_fd_sc_hd__a22o_1
*I *1253:X O *D sky130_fd_sc_hd__or3_1
*CAP
1 *1255:B1 0
2 *1253:X 0.000522997
3 *123:8 0.000522997
4 *123:8 *1255:A1 6.16164e-05
5 *123:8 *1255:B2 3.22879e-05
6 *123:8 *204:164 1.54983e-05
7 *123:8 *216:26 1.21972e-05
8 *97:22 *123:8 0.000265466
*RES
1 *1253:X *123:8 30.3121 
2 *123:8 *1255:B1 23 
*END

*D_NET *124 0.000105752
*CONN
*I *1255:B2 I *D sky130_fd_sc_hd__a22o_1
*I *1254:X O *D sky130_fd_sc_hd__o21ba_1
*CAP
1 *1255:B2 8.37909e-06
2 *1254:X 8.37909e-06
3 *1255:B2 *1255:A1 5.67058e-05
4 *123:8 *1255:B2 3.22879e-05
*RES
1 *1254:X *1255:B2 46.6214 
*END

*D_NET *125 0.00207464
*CONN
*I *1257:C1 I *D sky130_fd_sc_hd__a221o_1
*I *1256:X O *D sky130_fd_sc_hd__a22o_1
*CAP
1 *1257:C1 0
2 *1256:X 0.000715184
3 *125:8 0.000715184
4 *125:8 *1257:B2 3.08966e-05
5 *125:8 *1290:A1 3.17516e-05
6 *125:8 *1290:S 0.000517599
7 *1256:A2 *125:8 5.41288e-05
8 *36:10 *125:8 9.8971e-06
*RES
1 *1256:X *125:8 35.905 
2 *125:8 *1257:C1 23 
*END

*D_NET *126 0.000706606
*CONN
*I *1264:A I *D sky130_fd_sc_hd__or3_1
*I *1257:X O *D sky130_fd_sc_hd__a221o_1
*CAP
1 *1264:A 9.95984e-05
2 *1257:X 6.18537e-05
3 *126:8 0.000161452
4 *1264:A *171:149 0.000188733
5 *126:8 *171:149 8.4047e-05
6 *92:36 *126:8 0.000110922
*RES
1 *1257:X *126:8 39.5536 
2 *126:8 *1264:A 40.5479 
*END

*D_NET *127 0.000833399
*CONN
*I *1259:C1 I *D sky130_fd_sc_hd__a221o_1
*I *1258:X O *D sky130_fd_sc_hd__a221o_1
*CAP
1 *1259:C1 0
2 *1258:X 0.000260585
3 *127:10 0.000260585
4 *127:10 *1295:A0 0
5 *127:10 *172:52 0
6 *127:10 *208:39 0.000230604
7 *92:27 *127:10 8.16253e-05
*RES
1 *1258:X *127:10 42.785 
2 *127:10 *1259:C1 38 
*END

*D_NET *128 0.000573973
*CONN
*I *1264:B I *D sky130_fd_sc_hd__or3_1
*I *1259:X O *D sky130_fd_sc_hd__a221o_1
*CAP
1 *1264:B 0
2 *1259:X 0.000209513
3 *128:8 0.000209513
4 *128:8 *184:89 0.000114083
5 *128:8 *257:8 4.08641e-05
6 *92:36 *128:8 0
7 *97:35 *128:8 0
*RES
1 *1259:X *128:8 42.0186 
2 *128:8 *1264:B 38 
*END

*D_NET *129 0.000506741
*CONN
*I *1263:B1 I *D sky130_fd_sc_hd__a211o_1
*I *1260:X O *D sky130_fd_sc_hd__a22o_1
*CAP
1 *1263:B1 2.05849e-05
2 *1260:X 0.000133258
3 *129:10 0.000153843
4 *129:10 *1263:C1 2.43996e-05
5 *129:10 *225:22 0.000163185
6 *106:45 *129:10 0
7 *110:49 *129:10 7.57281e-06
8 *111:26 *129:10 3.89785e-06
*RES
1 *1260:X *129:10 40.8793 
2 *129:10 *1263:B1 38.3573 
*END

*D_NET *130 0.00689365
*CONN
*I *1262:C1 I *D sky130_fd_sc_hd__a221o_1
*I *1261:X O *D sky130_fd_sc_hd__a22o_1
*CAP
1 *1262:C1 0
2 *1261:X 3.23988e-05
3 *130:22 0.0031763
4 *130:10 0.0032087
5 *130:10 *214:35 1.13845e-05
6 *130:10 *277:25 1.15307e-05
7 *130:22 *131:12 6.36371e-05
8 *130:22 *132:12 4.01402e-05
9 *130:22 *155:42 0
10 *130:22 *206:34 0.000100139
11 *130:22 *206:44 0.000100161
12 *1262:B1 *130:22 9.4412e-05
13 *104:12 *130:22 5.48395e-05
*RES
1 *1261:X *130:10 46.6732 
2 *130:10 *130:22 31.207 
3 *130:22 *1262:C1 23 
*END

*D_NET *131 0.000895064
*CONN
*I *1263:C1 I *D sky130_fd_sc_hd__a211o_1
*I *1262:X O *D sky130_fd_sc_hd__a221o_1
*CAP
1 *1263:C1 1.61545e-05
2 *1262:X 0.000198754
3 *131:12 0.000214908
4 *131:12 *132:12 3.9353e-05
5 *131:12 *171:81 1.05658e-05
6 *131:12 *179:49 1.05658e-05
7 *106:45 *1263:C1 2.74987e-05
8 *110:49 *131:12 0.000289228
9 *129:10 *1263:C1 2.43996e-05
10 *130:22 *131:12 6.36371e-05
*RES
1 *1262:X *131:12 46.9781 
2 *131:12 *1263:C1 46.6732 
*END

*D_NET *132 0.00762475
*CONN
*I *1264:C I *D sky130_fd_sc_hd__or3_1
*I *1263:X O *D sky130_fd_sc_hd__a211o_1
*CAP
1 *1264:C 0
2 *1263:X 0.000104536
3 *132:26 0.00357113
4 *132:12 0.00367566
5 *132:12 *1262:A1 4.67998e-05
6 *132:12 *171:81 7.74865e-06
7 *132:12 *179:49 0.000100228
8 *86:52 *132:12 1.47563e-05
9 *92:36 *132:26 2.43996e-05
10 *97:35 *132:26 0
11 *130:22 *132:12 4.01402e-05
12 *131:12 *132:12 3.9353e-05
*RES
1 *1263:X *132:12 47.5623 
2 *132:12 *132:26 47.9556 
3 *132:26 *1264:C 23 
*END

*D_NET *133 0.00176268
*CONN
*I *1266:B1 I *D sky130_fd_sc_hd__a22o_1
*I *1264:X O *D sky130_fd_sc_hd__or3_1
*CAP
1 *1266:B1 0
2 *1264:X 0
3 *133:10 0.000650694
4 *133:6 0.000650694
5 *133:10 *134:10 0.000122294
6 *133:10 *204:59 0.000160191
7 *133:10 *255:31 0
8 *1223:A2 *133:10 0
9 *92:36 *133:10 0
10 *97:35 *133:10 0.000178809
*RES
1 *1264:X *133:6 38 
2 *133:6 *133:10 27.8221 
3 *133:10 *1266:B1 23 
*END

*D_NET *134 0.00109249
*CONN
*I *1266:B2 I *D sky130_fd_sc_hd__a22o_1
*I *1265:X O *D sky130_fd_sc_hd__o21ba_1
*CAP
1 *1266:B2 0
2 *1265:X 0.000352115
3 *134:10 0.000352115
4 *134:10 *136:8 0.000181919
5 *134:10 *143:8 0
6 *134:10 *204:59 8.4047e-05
7 *134:10 *205:31 0
8 *133:10 *134:10 0.000122294
*RES
1 *1265:X *134:10 44.7736 
2 *134:10 *1266:B2 38 
*END

*D_NET *135 0.0015254
*CONN
*I *1268:C1 I *D sky130_fd_sc_hd__a221o_1
*I *1267:X O *D sky130_fd_sc_hd__a22o_1
*CAP
1 *1268:C1 9.87552e-05
2 *1267:X 0.000118473
3 *135:10 0.000217229
4 *1268:C1 *1311:A1 0.00031495
5 *1268:C1 *146:44 4.04303e-05
6 *1268:C1 *150:6 5.3304e-05
7 *135:10 *1307:A 4.13358e-05
8 *135:10 *150:14 0.000133316
9 *1268:B1 *1268:C1 5.50106e-05
10 *1307:B *1268:C1 0.000395889
11 *93:46 *135:10 5.67058e-05
*RES
1 *1267:X *135:10 40.5271 
2 *135:10 *1268:C1 42.9093 
*END

*D_NET *136 0.00416613
*CONN
*I *1275:B1 I *D sky130_fd_sc_hd__o22a_1
*I *1268:X O *D sky130_fd_sc_hd__a221o_1
*CAP
1 *1275:B1 0
2 *1268:X 0.000898874
3 *136:8 0.000898874
4 *136:8 *1275:B2 1.14154e-05
5 *136:8 *1288:A1 1.56665e-05
6 *136:8 *1288:S 0.000409106
7 *136:8 *146:44 0.000310641
8 *136:8 *204:63 2.02872e-05
9 *136:8 *204:80 0.000700222
10 *1243:A2 *136:8 4.00259e-06
11 *92:54 *136:8 0.000394988
12 *94:12 *136:8 3.79251e-05
13 *97:52 *136:8 0.000282207
14 *134:10 *136:8 0.000181919
*RES
1 *1268:X *136:8 45.4336 
2 *136:8 *1275:B1 23 
*END

*D_NET *137 0.00249113
*CONN
*I *1270:C1 I *D sky130_fd_sc_hd__a221o_1
*I *1269:X O *D sky130_fd_sc_hd__a221o_1
*CAP
1 *1270:C1 0
2 *1269:X 0.000556297
3 *137:10 0.000556297
4 *137:10 *1220:A 5.56356e-05
5 *137:10 *1221:A_N 6.97734e-05
6 *137:10 *1269:C1 0
7 *137:10 *190:10 9.84851e-05
8 *137:10 *196:115 5.3304e-05
9 *137:10 *201:122 0.000221997
10 *1269:A2 *137:10 1.32314e-05
11 *91:48 *137:10 2.98648e-05
12 *92:10 *137:10 9.65021e-05
13 *101:26 *137:10 0.000739745
*RES
1 *1269:X *137:10 38.4321 
2 *137:10 *1270:C1 23 
*END

*D_NET *138 0.00156549
*CONN
*I *1274:B1 I *D sky130_fd_sc_hd__a2111o_1
*I *1270:X O *D sky130_fd_sc_hd__a221o_1
*CAP
1 *1274:B1 4.00127e-05
2 *1270:X 0.000422809
3 *138:8 0.000462822
4 *1274:B1 *190:40 3.22879e-05
5 *138:8 *171:121 3.62219e-05
6 *138:8 *180:59 0.000504565
7 *138:8 *207:128 6.67764e-05
8 *118:12 *138:8 0
*RES
1 *1270:X *138:8 47.6529 
2 *138:8 *1274:B1 38.6214 
*END

*D_NET *139 0.00245624
*CONN
*I *1274:C1 I *D sky130_fd_sc_hd__a2111o_1
*I *1271:X O *D sky130_fd_sc_hd__a22o_1
*CAP
1 *1274:C1 0
2 *1271:X 0
3 *139:14 0.000971513
4 *139:6 0.000971513
5 *139:14 *1262:B2 0
6 *139:14 *1271:A1 0
7 *139:14 *1271:B2 0
8 *139:14 *1340:A0 0
9 *139:14 *1395:RESET_B 0.000183733
10 *139:14 *171:121 0
11 *139:14 *180:37 0
12 *139:14 *190:33 4.2185e-05
13 *139:14 *190:40 0.0001164
14 *139:14 *206:20 0
15 *139:14 *207:78 0.000170899
16 *139:14 *207:84 0
17 *139:14 *229:10 0
18 *77:10 *139:14 0
*RES
1 *1271:X *139:6 38 
2 *139:6 *139:14 33.2079 
3 *139:14 *1274:C1 23 
*END

*D_NET *140 0.00442656
*CONN
*I *1273:C1 I *D sky130_fd_sc_hd__a221o_1
*I *1272:X O *D sky130_fd_sc_hd__a22o_1
*CAP
1 *1273:C1 0
2 *1272:X 0.00173413
3 *140:12 0.000110535
4 *140:6 0.00184466
5 *140:6 *1216:A0 1.03836e-05
6 *140:6 *1352:RESET_B 3.27969e-05
7 *140:6 *175:144 4.12995e-05
8 *140:6 *186:97 0.000132166
9 *140:6 *207:64 8.17546e-05
10 *140:6 *239:8 0.00019975
11 *140:12 *274:10 7.8128e-05
12 *1216:S *140:6 0.000123934
13 *1273:B1 *140:12 3.70187e-05
14 *106:35 *140:12 0
*RES
1 *1272:X *140:6 46.9664 
2 *140:6 *140:12 32.2579 
3 *140:12 *1273:C1 23 
*END

*D_NET *141 0.00174028
*CONN
*I *1274:D1 I *D sky130_fd_sc_hd__a2111o_1
*I *1273:X O *D sky130_fd_sc_hd__a221o_1
*CAP
1 *1274:D1 0
2 *1273:X 0.000473068
3 *141:10 0.000473068
4 *141:10 *1321:A1 0.000183247
5 *141:10 *142:10 0.000108681
6 *141:10 *171:121 0.000110913
7 *141:10 *180:59 9.41704e-05
8 *61:10 *141:10 0.000265466
9 *89:33 *141:10 3.16665e-05
*RES
1 *1273:X *141:10 48.7507 
2 *141:10 *1274:D1 38 
*END

*D_NET *142 0.00718934
*CONN
*I *1275:B2 I *D sky130_fd_sc_hd__o22a_1
*I *1274:X O *D sky130_fd_sc_hd__a2111o_1
*CAP
1 *1275:B2 8.60928e-05
2 *1274:X 8.16808e-05
3 *142:10 0.00151915
4 *142:8 0.00151473
5 *142:8 *190:40 5.25848e-05
6 *142:10 *1270:B2 1.22803e-05
7 *142:10 *1320:S 0
8 *142:10 *1321:S 0
9 *142:10 *151:18 6.38947e-05
10 *142:10 *169:33 0
11 *142:10 *171:121 0.000701464
12 *142:10 *172:73 0
13 *142:10 *180:59 8.4047e-05
14 *142:10 *184:72 0.000105165
15 *142:10 *186:72 7.76364e-06
16 *142:10 *205:31 0
17 *142:10 *207:104 0
18 *142:10 *207:128 0.000307802
19 *142:10 *217:25 0
20 *1243:A2 *1275:B2 9.00922e-05
21 *1270:B1 *142:10 0.000111852
22 *28:8 *142:10 7.03766e-05
23 *56:14 *142:10 1.00765e-05
24 *56:24 *142:10 0.000114083
25 *88:42 *142:10 0.000931555
26 *88:72 *142:10 0.000415396
27 *89:33 *142:10 0.000446723
28 *94:12 *1275:B2 0.000315852
29 *97:52 *1275:B2 2.65879e-05
30 *136:8 *1275:B2 1.14154e-05
31 *141:10 *142:10 0.000108681
*RES
1 *1274:X *142:8 39.0979 
2 *142:8 *142:10 38.1764 
3 *142:10 *1275:B2 41.9771 
*END

*D_NET *143 0.000518333
*CONN
*I *1276:A0 I *D sky130_fd_sc_hd__mux2_1
*I *1275:X O *D sky130_fd_sc_hd__o22a_1
*CAP
1 *1276:A0 0
2 *1275:X 0.000181043
3 *143:8 0.000181043
4 *143:8 *205:31 0.000144802
5 *97:52 *143:8 1.14452e-05
6 *134:10 *143:8 0
*RES
1 *1275:X *143:8 42.0186 
2 *143:8 *1276:A0 38 
*END

*D_NET *144 0.00835038
*CONN
*I *1281:S I *D sky130_fd_sc_hd__mux2_1
*I *1278:S I *D sky130_fd_sc_hd__mux2_1
*I *1280:S I *D sky130_fd_sc_hd__mux2_1
*I *1279:S I *D sky130_fd_sc_hd__mux2_1
*I *1277:Y O *D sky130_fd_sc_hd__nand2_2
*CAP
1 *1281:S 0.000320203
2 *1278:S 0.000191716
3 *1280:S 7.46901e-05
4 *1279:S 0.000368098
5 *1277:Y 0
6 *144:40 0.000713597
7 *144:29 0.000854257
8 *144:6 0.000945987
9 *1278:S *1278:A1 5.67058e-05
10 *1278:S *175:193 2.4754e-05
11 *1278:S *204:32 0.000149907
12 *1279:S *1277:B 0.000138718
13 *1279:S *1279:A0 0.000175903
14 *1279:S *1314:S 6.6869e-05
15 *1279:S *184:48 0.000220759
16 *1279:S *204:16 0.00022109
17 *1279:S *204:164 0.000128723
18 *1279:S *216:14 4.2573e-05
19 *1279:S *216:26 0.000175903
20 *1280:S *1366:CLK 0.000359326
21 *1280:S *186:72 0.000400193
22 *1281:S *1360:CLK 5.3304e-05
23 *1281:S *195:54 0.000151907
24 *144:29 *1313:S 0.000134289
25 *144:29 *1314:S 9.63815e-05
26 *144:29 *1356:CLK 5.42488e-05
27 *144:29 *186:72 0.0002246
28 *144:29 *204:16 0.000559353
29 *144:29 *243:20 0.000168744
30 *144:40 *195:54 0.00025307
31 *144:40 *195:56 0.000188916
32 *144:40 *204:16 7.64463e-05
33 *144:40 *204:24 0
34 *144:40 *204:51 0
35 *1243:A2 *1278:S 0.000701923
36 *26:8 *1281:S 0
37 *29:10 *1281:S 5.72217e-05
*RES
1 *1277:Y *144:6 38 
2 *144:6 *1279:S 48.0464 
3 *144:6 *144:29 30.4114 
4 *144:29 *1280:S 27.4329 
5 *144:29 *144:40 20.7793 
6 *144:40 *1278:S 45.7679 
7 *144:40 *1281:S 44.235 
*END

*D_NET *145 0.0124914
*CONN
*I *1283:S I *D sky130_fd_sc_hd__mux2_1
*I *1285:S I *D sky130_fd_sc_hd__mux2_1
*I *1284:S I *D sky130_fd_sc_hd__mux2_1
*I *1286:S I *D sky130_fd_sc_hd__mux2_1
*I *1282:Y O *D sky130_fd_sc_hd__nand2_2
*CAP
1 *1283:S 0.00015116
2 *1285:S 0
3 *1284:S 0.00011318
4 *1286:S 0.000961029
5 *1282:Y 8.16808e-05
6 *145:52 0.00124197
7 *145:42 0.00144308
8 *145:20 0.00176539
9 *145:8 0.000822814
10 *1283:S *1356:RESET_B 2.11887e-05
11 *1283:S *175:193 0.000292205
12 *1283:S *176:91 0.000114656
13 *1283:S *185:25 0.000182832
14 *1283:S *186:72 0.000182832
15 *1284:S *1284:A1 4.37033e-05
16 *1284:S *174:44 2.93747e-05
17 *1284:S *174:50 4.5051e-05
18 *1286:S *1252:D1 1.05235e-05
19 *1286:S *174:50 0.000180224
20 *1286:S *207:126 0.000135037
21 *1286:S *220:25 0.000219383
22 *145:8 *176:12 5.25848e-05
23 *145:20 *1356:RESET_B 8.46523e-05
24 *145:20 *1365:RESET_B 0.000283088
25 *145:20 *175:185 0.00134149
26 *145:20 *175:193 6.35385e-05
27 *145:20 *176:91 4.27794e-05
28 *145:20 *184:109 9.27814e-05
29 *145:20 *212:29 0.00140876
30 *145:42 *175:193 7.39034e-05
31 *145:42 *176:91 3.83778e-05
32 *145:52 *1364:CLK 0.000234313
33 *145:52 *169:48 1.3109e-05
34 *145:52 *171:135 0.000199731
35 *1364:D *145:52 3.87132e-05
36 *88:72 *145:52 0.000169297
37 *102:29 *1286:S 0.000152012
38 *104:61 *1286:S 0.000137651
39 *122:10 *1286:S 2.7237e-05
*RES
1 *1282:Y *145:8 39.0979 
2 *145:8 *145:20 40.2714 
3 *145:20 *1286:S 40.69 
4 *145:20 *1284:S 25.5479 
5 *145:8 *145:42 1.20143 
6 *145:42 *145:52 33.4357 
7 *145:52 *1285:S 23 
8 *145:42 *1283:S 44.0693 
*END

*D_NET *146 0.00890623
*CONN
*I *1291:S I *D sky130_fd_sc_hd__mux2_1
*I *1289:S I *D sky130_fd_sc_hd__mux2_1
*I *1288:S I *D sky130_fd_sc_hd__mux2_1
*I *1290:S I *D sky130_fd_sc_hd__mux2_1
*I *1287:Y O *D sky130_fd_sc_hd__nand2_2
*CAP
1 *1291:S 0
2 *1289:S 0
3 *1288:S 0.000180558
4 *1290:S 0.000373163
5 *1287:Y 0
6 *146:54 0.000515498
7 *146:44 0.0015368
8 *146:19 0.00129525
9 *146:6 0.000466554
10 *1288:S *1288:A1 5.67058e-05
11 *1288:S *168:25 0.000313224
12 *1290:S *1287:B 3.34818e-06
13 *1290:S *1290:A1 2.93845e-05
14 *1290:S *171:149 1.21972e-05
15 *1290:S *191:118 0
16 *1290:S *196:75 6.43357e-05
17 *1290:S *204:103 8.22421e-06
18 *146:19 *1287:B 2.77724e-05
19 *146:19 *168:25 4.40479e-06
20 *146:19 *208:54 5.94125e-05
21 *146:19 *208:99 1.01436e-05
22 *146:44 *1268:A1 9.28753e-05
23 *146:44 *1311:A1 0.000384207
24 *146:44 *150:6 0.000141954
25 *146:44 *196:75 1.34354e-05
26 *146:44 *208:62 9.24795e-06
27 *146:44 *208:68 0.000194219
28 *146:44 *208:99 7.39034e-05
29 *146:44 *266:14 7.93848e-06
30 *146:54 *1289:A1 1.94693e-05
31 *146:54 *1291:A0 2.64616e-05
32 *146:54 *1305:S 5.50049e-05
33 *146:54 *1306:S 0
34 *146:54 *1371:RESET_B 0.000218962
35 *146:54 *1382:RESET_B 0.000244526
36 *146:54 *183:28 0.000164282
37 *146:54 *193:55 0
38 *146:54 *208:68 6.17437e-06
39 *146:54 *208:83 0.000135547
40 *146:54 *214:41 0.000401825
41 *1268:B1 *146:44 1.76557e-05
42 *1268:C1 *146:44 4.04303e-05
43 *36:10 *1290:S 0.000100415
44 *53:10 *146:44 0.000141954
45 *92:54 *1288:S 9.67842e-05
46 *92:54 *1290:S 1.83667e-05
47 *92:54 *146:19 7.81073e-05
48 *92:54 *146:44 2.81627e-05
49 *125:8 *1290:S 0.000517599
50 *136:8 *1288:S 0.000409106
51 *136:8 *146:44 0.000310641
*RES
1 *1287:Y *146:6 38 
2 *146:6 *1290:S 47.1764 
3 *146:6 *146:19 2.25786 
4 *146:19 *1288:S 44.5043 
5 *146:19 *146:44 36.0664 
6 *146:44 *146:54 42.6564 
7 *146:54 *1289:S 23 
8 *146:44 *1291:S 23 
*END

*D_NET *147 0.00729247
*CONN
*I *1295:S I *D sky130_fd_sc_hd__mux2_1
*I *1296:S I *D sky130_fd_sc_hd__mux2_1
*I *1293:S I *D sky130_fd_sc_hd__mux2_1
*I *1294:S I *D sky130_fd_sc_hd__mux2_1
*I *1292:Y O *D sky130_fd_sc_hd__nand2_2
*CAP
1 *1295:S 0.000402385
2 *1296:S 0.000348472
3 *1293:S 0
4 *1294:S 6.35775e-05
5 *1292:Y 0.000137951
6 *147:40 0.00159133
7 *147:27 0.000104469
8 *147:12 0.000461704
9 *147:10 0.00113413
10 *147:8 0.000137951
11 *1294:S *1245:B2 2.93335e-05
12 *1295:S *1295:A0 9.75779e-05
13 *1295:S *182:19 3.74442e-05
14 *1295:S *182:29 3.98859e-05
15 *1295:S *182:92 2.22183e-05
16 *1295:S *208:31 0
17 *1295:S *208:39 0.000180224
18 *1296:S *160:25 0.000195903
19 *1296:S *182:10 0
20 *1296:S *182:19 9.99686e-05
21 *1296:S *202:8 0
22 *1296:S *208:24 0
23 *1296:S *208:31 0
24 *147:8 *200:65 1.47563e-05
25 *147:8 *204:113 0.000187977
26 *147:8 *263:14 0
27 *147:12 *1245:A1 9.77922e-06
28 *147:12 *1245:B2 2.02872e-05
29 *147:12 *176:38 0.000481198
30 *147:27 *1372:RESET_B 0
31 *147:40 *1309:A1 0.000153369
32 *147:40 *1374:CLK 9.1408e-05
33 *147:40 *1374:RESET_B 2.5214e-05
34 *147:40 *173:101 4.75206e-05
35 *147:40 *173:118 2.81406e-06
36 *147:40 *176:38 0.000185434
37 *39:8 *1294:S 0
38 *40:10 *1295:S 7.24484e-05
39 *99:16 *147:12 0.000140935
40 *99:16 *147:27 0.000163352
41 *115:10 *147:12 0.000354116
42 *115:10 *147:40 0.000257343
*RES
1 *1292:Y *147:8 40.9621 
2 *147:8 *147:10 15 
3 *147:10 *147:12 7.76786 
4 *147:12 *1294:S 24.1186 
5 *147:12 *147:27 32.2579 
6 *147:27 *1293:S 23 
7 *147:10 *147:40 28.6507 
8 *147:40 *1296:S 45.54 
9 *147:40 *1295:S 46.9279 
*END

*D_NET *148 0.0064416
*CONN
*I *1298:S I *D sky130_fd_sc_hd__mux2_1
*I *1301:S I *D sky130_fd_sc_hd__mux2_1
*I *1300:S I *D sky130_fd_sc_hd__mux2_1
*I *1299:S I *D sky130_fd_sc_hd__mux2_1
*I *1297:Y O *D sky130_fd_sc_hd__nand2_2
*CAP
1 *1298:S 0.000169
2 *1301:S 0
3 *1300:S 0.000212453
4 *1299:S 0.000127086
5 *1297:Y 0
6 *148:40 0.000371173
7 *148:32 0.000886238
8 *148:14 0.000829732
9 *148:6 0.000836259
10 *1298:S *1298:A0 1.94812e-05
11 *1298:S *1298:A1 2.30292e-05
12 *1298:S *195:10 0.00014196
13 *1299:S *176:28 0.000358425
14 *1299:S *196:77 5.50049e-05
15 *1300:S *1300:A1 3.22879e-05
16 *1300:S *172:67 5.41385e-05
17 *1300:S *176:28 0.00025393
18 *1300:S *196:77 5.3304e-05
19 *1300:S *196:90 0.000168687
20 *148:14 *182:92 0
21 *148:14 *194:8 0.000171906
22 *148:14 *196:75 0.000432021
23 *148:14 *208:50 0.000234804
24 *148:32 *1298:A0 0
25 *148:32 *1368:RESET_B 0
26 *148:32 *196:75 0.000264334
27 *148:32 *208:50 3.56433e-05
28 *148:32 *208:99 0
29 *148:32 *255:14 0
30 *148:40 *1268:A1 6.48142e-05
31 *148:40 *1301:A1 0.000132665
32 *148:40 *195:10 5.50049e-05
33 *148:40 *196:62 0.00018332
34 *148:40 *196:75 2.93747e-05
35 *148:40 *258:8 0.000103647
36 *34:8 *148:32 0.000141879
*RES
1 *1297:Y *148:6 38 
2 *148:6 *148:14 28.2364 
3 *148:14 *1299:S 26.9564 
4 *148:14 *1300:S 28.3857 
5 *148:6 *148:32 23.2443 
6 *148:32 *148:40 39.425 
7 *148:40 *1301:S 23 
8 *148:32 *1298:S 26.9564 
*END

*D_NET *149 0.00837757
*CONN
*I *1306:S I *D sky130_fd_sc_hd__mux2_1
*I *1305:S I *D sky130_fd_sc_hd__mux2_1
*I *1303:S I *D sky130_fd_sc_hd__mux2_1
*I *1304:S I *D sky130_fd_sc_hd__mux2_1
*I *1302:Y O *D sky130_fd_sc_hd__nand2_2
*CAP
1 *1306:S 0.000327747
2 *1305:S 0.000565347
3 *1303:S 0
4 *1304:S 0
5 *1302:Y 4.3417e-05
6 *149:36 0.00074729
7 *149:24 0.00191759
8 *149:10 0.00183052
9 *149:8 0.000466035
10 *1305:S *1289:A1 2.25203e-05
11 *1305:S *1305:A0 9.11651e-05
12 *1305:S *1305:A1 5.41288e-05
13 *1305:S *173:71 4.77213e-05
14 *1306:S *193:55 6.27678e-05
15 *1306:S *204:105 0
16 *1306:S *204:126 2.16985e-05
17 *149:8 *204:126 5.56279e-05
18 *149:24 *1222:D_N 0.000222541
19 *149:24 *176:50 0.000118621
20 *149:24 *192:23 4.44329e-05
21 *149:24 *197:61 1.27328e-05
22 *149:24 *200:50 0.000191276
23 *149:24 *201:50 1.35751e-05
24 *149:24 *214:41 1.55115e-05
25 *149:36 *1236:C 0
26 *149:36 *1304:A1 5.50049e-05
27 *149:36 *192:23 0.000229801
28 *149:36 *214:41 0.000421803
29 *149:36 *260:35 0.000527794
30 *1302:B *1306:S 2.33476e-05
31 *52:10 *1306:S 0.000111462
32 *93:12 *149:24 8.10864e-05
33 *95:65 *1306:S 0
34 *146:54 *1305:S 5.50049e-05
35 *146:54 *1306:S 0
*RES
1 *1302:Y *149:8 38.6214 
2 *149:8 *149:10 1.55357 
3 *149:10 *149:24 35.5071 
4 *149:24 *149:36 45.7429 
5 *149:36 *1304:S 23 
6 *149:24 *1303:S 23 
7 *149:10 *1305:S 47.6943 
8 *149:8 *1306:S 44.4836 
*END

*D_NET *150 0.00413098
*CONN
*I *1311:S I *D sky130_fd_sc_hd__mux2_1
*I *1310:S I *D sky130_fd_sc_hd__mux2_1
*I *1308:S I *D sky130_fd_sc_hd__mux2_1
*I *1309:S I *D sky130_fd_sc_hd__mux2_1
*I *1307:Y O *D sky130_fd_sc_hd__nand2_1
*CAP
1 *1311:S 0
2 *1310:S 4.17993e-05
3 *1308:S 2.77218e-05
4 *1309:S 0.000230914
5 *1307:Y 3.58257e-05
6 *150:18 0.000529312
7 *150:14 0.000946289
8 *150:6 0.00066964
9 *1308:S *176:28 5.3304e-05
10 *1308:S *182:47 2.64616e-05
11 *1309:S *1309:A1 4.37033e-05
12 *1309:S *173:118 9.22159e-05
13 *1309:S *182:47 0.000244526
14 *1309:S *263:14 0.000127509
15 *1309:S *264:8 9.20311e-06
16 *1310:S *172:35 5.90675e-06
17 *1310:S *172:50 6.8523e-05
18 *150:6 *208:68 1.76557e-05
19 *150:14 *1307:A 0
20 *150:14 *172:35 0.000228909
21 *150:14 *172:50 2.18409e-05
22 *150:14 *183:12 4.08641e-05
23 *150:14 *183:61 0
24 *150:14 *250:10 0
25 *150:14 *265:10 0
26 *150:18 *182:47 6.25829e-05
27 *150:18 *191:90 2.19436e-05
28 *150:18 *263:14 2.11887e-05
29 *1268:C1 *150:6 5.3304e-05
30 *1307:B *150:6 2.32004e-05
31 *43:10 *150:18 5.56203e-05
32 *93:27 *150:14 0.000155749
33 *93:27 *150:18 0
34 *100:42 *150:18 0
35 *100:50 *150:14 0
36 *135:10 *150:14 0.000133316
37 *146:44 *150:6 0.000141954
*RES
1 *1307:Y *150:6 24.5743 
2 *150:6 *150:14 42.3043 
3 *150:14 *150:18 20.4271 
4 *150:18 *1309:S 44.6907 
5 *150:18 *1308:S 38.6214 
6 *150:14 *1310:S 24.1186 
7 *150:6 *1311:S 23 
*END

*D_NET *151 0.00496387
*CONN
*I *1313:S I *D sky130_fd_sc_hd__mux2_1
*I *1314:S I *D sky130_fd_sc_hd__mux2_1
*I *1315:S I *D sky130_fd_sc_hd__mux2_1
*I *1316:S I *D sky130_fd_sc_hd__mux2_1
*I *1312:Y O *D sky130_fd_sc_hd__nand2_1
*CAP
1 *1313:S 0.000136677
2 *1314:S 0.000223281
3 *1315:S 0
4 *1316:S 0
5 *1312:Y 0
6 *151:32 0.00106306
7 *151:18 0.000218514
8 *151:8 0.000325036
9 *151:4 0.000809623
10 *1313:S *1356:CLK 0.000230291
11 *1313:S *194:45 6.25829e-05
12 *1314:S *1250:A1 1.14452e-05
13 *1314:S *1277:B 3.87652e-05
14 *1314:S *1393:CLK 1.14452e-05
15 *1314:S *194:45 0.000130424
16 *1314:S *194:47 0.000261239
17 *1314:S *194:49 0.000155059
18 *1314:S *268:10 0.000141869
19 *151:18 *1316:A1 1.94693e-05
20 *151:18 *172:73 0
21 *151:18 *172:86 1.12487e-05
22 *151:18 *208:39 5.67058e-05
23 *151:32 *1388:CLK 0.000272468
24 *151:32 *194:43 0.000181748
25 *151:32 *205:25 2.03764e-06
26 *151:32 *205:31 8.06804e-06
27 *1279:S *1314:S 6.6869e-05
28 *56:14 *151:18 3.70187e-05
29 *88:27 *151:8 9.84794e-05
30 *88:27 *151:18 5.50106e-05
31 *88:36 *151:8 4.08664e-05
32 *142:10 *151:18 6.38947e-05
33 *144:29 *1313:S 0.000134289
34 *144:29 *1314:S 9.63815e-05
*RES
1 *1312:Y *151:4 23 
2 *151:4 *151:8 2.42357 
3 *151:8 *151:18 34.8057 
4 *151:18 *1316:S 23 
5 *151:8 *1315:S 23 
6 *151:4 *151:32 25.15 
7 *151:32 *1314:S 45.54 
8 *151:32 *1313:S 42.0186 
*END

*D_NET *152 0.00643849
*CONN
*I *1319:S I *D sky130_fd_sc_hd__mux2_1
*I *1320:S I *D sky130_fd_sc_hd__mux2_1
*I *1321:S I *D sky130_fd_sc_hd__mux2_1
*I *1318:S I *D sky130_fd_sc_hd__mux2_1
*I *1317:Y O *D sky130_fd_sc_hd__nand2_2
*CAP
1 *1319:S 0
2 *1320:S 0.000619093
3 *1321:S 0.000280569
4 *1318:S 0.00024937
5 *1317:Y 6.5862e-05
6 *152:29 0.00139266
7 *152:25 0.000922046
8 *152:8 0.000744283
9 *1318:S *175:50 0.000205648
10 *1318:S *175:62 8.72173e-05
11 *1318:S *180:25 7.15126e-05
12 *1318:S *220:25 0.000400895
13 *1320:S *1270:B2 7.30978e-05
14 *1320:S *169:12 0
15 *1320:S *184:72 6.95665e-05
16 *1320:S *190:10 0
17 *1321:S *1270:B2 1.7992e-05
18 *1321:S *1286:A1 5.82599e-05
19 *1321:S *190:16 0
20 *1321:S *207:104 3.14214e-05
21 *1321:S *207:117 2.54046e-05
22 *152:25 *1252:D1 0.000139647
23 *152:25 *1319:A0 7.15126e-05
24 *152:25 *1365:CLK 0
25 *152:25 *220:25 0.000179712
26 *152:29 *246:8 0.000200616
27 *1317:B *152:8 2.32101e-05
28 *33:12 *1321:S 0
29 *57:10 *1320:S 0
30 *89:25 *152:29 6.343e-05
31 *89:33 *1321:S 0
32 *89:33 *152:8 1.40958e-05
33 *102:37 *152:8 1.24376e-05
34 *104:61 *1318:S 4.95442e-05
35 *104:61 *152:25 4.60366e-05
36 *112:12 *152:25 3.53571e-05
37 *117:18 *152:25 1.05658e-05
38 *119:10 *152:25 0.000137788
39 *122:10 *152:25 0.000139647
40 *142:10 *1320:S 0
41 *142:10 *1321:S 0
*RES
1 *1317:Y *152:8 39.0979 
2 *152:8 *1318:S 45.0014 
3 *152:8 *152:25 24.135 
4 *152:25 *152:29 23.7207 
5 *152:29 *1321:S 43.7793 
6 *152:29 *1320:S 49.4136 
7 *152:25 *1319:S 23 
*END

*D_NET *153 0.00652896
*CONN
*I *1324:S I *D sky130_fd_sc_hd__mux2_1
*I *1326:S I *D sky130_fd_sc_hd__mux2_1
*I *1325:S I *D sky130_fd_sc_hd__mux2_1
*I *1323:S I *D sky130_fd_sc_hd__mux2_1
*I *1322:Y O *D sky130_fd_sc_hd__nand2_2
*CAP
1 *1324:S 0
2 *1326:S 0.000108048
3 *1325:S 0.000517925
4 *1323:S 0.000178197
5 *1322:Y 0
6 *153:59 0.00062418
7 *153:42 0.0012852
8 *153:12 0.000928555
9 *153:6 0.000785401
10 *1323:S *1323:A0 9.8203e-05
11 *1323:S *214:12 6.79006e-05
12 *1325:S *187:29 4.55818e-05
13 *1325:S *187:42 4.40432e-05
14 *1326:S *188:47 7.87243e-05
15 *153:12 *1398:RESET_B 0
16 *153:12 *1416:CLK 0
17 *153:12 *206:69 0
18 *153:12 *214:12 0.00020007
19 *153:12 *214:35 3.70187e-05
20 *153:42 *175:123 1.63371e-05
21 *153:42 *206:69 0
22 *153:42 *214:35 0.00083662
23 *153:42 *278:14 1.68817e-05
24 *153:59 *214:35 0.000398924
25 *153:59 *278:14 5.119e-05
26 *62:10 *153:12 0
27 *82:10 *153:42 0.000114092
28 *107:18 *153:59 9.58714e-05
*RES
1 *1322:Y *153:6 38 
2 *153:6 *153:12 4.785 
3 *153:12 *1323:S 41.48 
4 *153:12 *1325:S 45.3329 
5 *153:6 *153:42 12.5321 
6 *153:42 *1326:S 40.0714 
7 *153:42 *153:59 28.195 
8 *153:59 *1324:S 23 
*END

*D_NET *154 0.00535823
*CONN
*I *1331:S I *D sky130_fd_sc_hd__mux2_1
*I *1328:S I *D sky130_fd_sc_hd__mux2_1
*I *1330:S I *D sky130_fd_sc_hd__mux2_1
*I *1329:S I *D sky130_fd_sc_hd__mux2_1
*I *1327:Y O *D sky130_fd_sc_hd__nand2_1
*CAP
1 *1331:S 0.000666155
2 *1328:S 0
3 *1330:S 0
4 *1329:S 0.000100601
5 *1327:Y 2.13035e-05
6 *154:27 0.000658712
7 *154:21 0.000731902
8 *154:19 0.000963187
9 *154:6 0.000345746
10 *1331:S *189:69 0.000418598
11 *1331:S *219:8 2.64616e-05
12 *154:6 *156:16 1.22822e-05
13 *154:6 *206:115 7.53384e-06
14 *154:19 *1328:A1 5.24393e-05
15 *154:19 *1400:RESET_B 0
16 *154:19 *1424:A 0
17 *154:19 *186:18 8.33469e-05
18 *154:19 *212:29 0
19 *154:19 *219:23 0.000401816
20 *154:21 *1328:A1 0.000127272
21 *154:21 *186:18 3.31683e-05
22 *154:27 *1328:A1 1.14452e-05
23 *154:27 *175:12 1.47563e-05
24 *1327:B *1329:S 8.264e-05
25 *1327:B *154:6 3.56477e-05
26 *68:10 *154:27 7.59964e-05
27 *103:53 *1329:S 0.0002246
28 *103:53 *154:6 8.60475e-05
29 *104:40 *1329:S 0.000176575
*RES
1 *1327:Y *154:6 24.0979 
2 *154:6 *1329:S 26.5007 
3 *154:6 *154:19 21.1314 
4 *154:19 *154:21 1.90571 
5 *154:21 *154:27 27.9879 
6 *154:27 *1330:S 23 
7 *154:21 *1328:S 38 
8 *154:19 *1331:S 49.1443 
*END

*D_NET *155 0.00897178
*CONN
*I *1336:S I *D sky130_fd_sc_hd__mux2_1
*I *1335:S I *D sky130_fd_sc_hd__mux2_1
*I *1334:S I *D sky130_fd_sc_hd__mux2_1
*I *1333:S I *D sky130_fd_sc_hd__mux2_1
*I *1332:Y O *D sky130_fd_sc_hd__nand2_2
*CAP
1 *1336:S 0
2 *1335:S 0
3 *1334:S 0.000192635
4 *1333:S 0.000462231
5 *1332:Y 2.26876e-05
6 *155:57 0.000614771
7 *155:44 0.000614771
8 *155:42 0.00155809
9 *155:10 0.000864709
10 *155:6 0.00179062
11 *1333:S *1333:A1 5.50106e-05
12 *1333:S *175:76 0.000106516
13 *1333:S *177:62 8.94487e-05
14 *1333:S *177:76 0.000318429
15 *1333:S *187:78 0
16 *1333:S *206:84 6.75317e-05
17 *1333:S *207:16 0
18 *1334:S *173:12 8.41896e-05
19 *1334:S *173:22 6.17437e-06
20 *1334:S *175:70 4.23817e-05
21 *1334:S *175:76 3.53159e-05
22 *155:6 *206:44 5.12055e-06
23 *155:10 *206:34 2.02872e-05
24 *155:10 *206:36 2.02872e-05
25 *155:10 *206:44 0.000135037
26 *155:42 *1354:CLK 5.12328e-05
27 *155:42 *171:38 6.16439e-05
28 *155:42 *171:81 0.000290615
29 *155:42 *206:34 0.000276925
30 *155:57 *1271:B2 0
31 *155:57 *1336:A1 0
32 *155:57 *171:38 0
33 *155:57 *171:40 0
34 *155:57 *179:16 0.000140259
35 *155:57 *207:145 0.000278447
36 *155:57 *221:14 0
37 *1260:A2 *155:42 0
38 *1260:A2 *155:57 0.000141954
39 *1262:B1 *155:42 2.96369e-05
40 *104:12 *155:42 0
41 *106:45 *155:42 1.10105e-05
42 *109:69 *1333:S 0.000135547
43 *109:69 *1334:S 0.000268833
44 *110:10 *1334:S 1.12487e-05
45 *110:14 *1333:S 3.83059e-05
46 *111:26 *155:42 0.000129886
47 *130:22 *155:42 0
*RES
1 *1332:Y *155:6 23.4971 
2 *155:6 *155:10 17.5271 
3 *155:10 *1333:S 47.8393 
4 *155:10 *1334:S 42.9093 
5 *155:6 *155:42 37.4957 
6 *155:42 *155:44 15 
7 *155:44 *1335:S 23 
8 *155:44 *155:57 42.9879 
9 *155:57 *1336:S 23 
*END

*D_NET *156 0.00764718
*CONN
*I *1338:S I *D sky130_fd_sc_hd__mux2_1
*I *1339:S I *D sky130_fd_sc_hd__mux2_1
*I *1341:S I *D sky130_fd_sc_hd__mux2_1
*I *1340:S I *D sky130_fd_sc_hd__mux2_1
*I *1337:Y O *D sky130_fd_sc_hd__nand2_2
*CAP
1 *1338:S 0
2 *1339:S 0.000563071
3 *1341:S 0
4 *1340:S 3.42834e-05
5 *1337:Y 0
6 *156:61 0.000431844
7 *156:29 0.000838683
8 *156:16 0.000856589
9 *156:4 0.000978536
10 *1339:S *1339:A1 9.5877e-05
11 *1339:S *1452:A 0.000223588
12 *1339:S *175:62 0.000307126
13 *1339:S *175:64 0.000190672
14 *1339:S *206:12 0.000431545
15 *156:16 *1329:A1 5.3304e-05
16 *156:16 *1337:A 5.67058e-05
17 *156:16 *1340:A0 0
18 *156:16 *1401:CLK 9.67842e-05
19 *156:16 *189:88 8.51329e-05
20 *156:16 *206:115 5.50106e-05
21 *156:29 *1341:A1 1.14452e-05
22 *156:29 *206:12 0
23 *156:29 *207:78 2.36844e-05
24 *156:29 *207:84 0.000106676
25 *156:61 *1338:A0 0.000270682
26 *156:61 *175:27 0.000190614
27 *156:61 *206:115 9.43231e-05
28 *156:61 *220:8 0.000115899
29 *1327:B *156:16 9.88437e-05
30 *67:10 *156:16 0.000138444
31 *74:10 *156:61 0.000229866
32 *76:10 *156:29 0.000138718
33 *103:53 *156:16 5.3656e-05
34 *103:79 *1339:S 0.000189118
35 *104:40 *156:16 0.000211759
36 *111:32 *1340:S 9.84794e-05
37 *111:32 *156:16 0.000188945
38 *118:8 *1339:S 0.000174996
39 *118:12 *156:29 0
40 *154:6 *156:16 1.22822e-05
*RES
1 *1337:Y *156:4 23 
2 *156:4 *156:16 43.5264 
3 *156:16 *1340:S 24.0979 
4 *156:16 *156:29 35.7793 
5 *156:29 *1341:S 23 
6 *156:29 *1339:S 39.53 
7 *156:4 *156:61 41.5171 
8 *156:61 *1338:S 23 
*END

*D_NET *157 0.00420568
*CONN
*I *1344:S I *D sky130_fd_sc_hd__mux2_1
*I *1346:S I *D sky130_fd_sc_hd__mux2_1
*I *1345:S I *D sky130_fd_sc_hd__mux2_1
*I *1343:S I *D sky130_fd_sc_hd__mux2_1
*I *1342:Y O *D sky130_fd_sc_hd__nand2_1
*CAP
1 *1344:S 1.22655e-05
2 *1346:S 0
3 *1345:S 4.29745e-05
4 *1343:S 0.000397153
5 *1342:Y 0.000127395
6 *157:14 0.000671856
7 *157:10 0.000341832
8 *157:6 0.000249764
9 *1344:S *171:34 5.50106e-05
10 *157:6 *171:34 0.000655829
11 *157:10 *160:14 3.92407e-05
12 *157:10 *177:116 9.45388e-05
13 *157:10 *234:10 2.77955e-05
14 *157:10 *234:25 0.000215791
15 *157:14 *160:14 0.000428682
16 *157:14 *234:10 0.000166513
17 *1237:A2 *157:6 2.32004e-05
18 *106:60 *1344:S 4.2573e-05
19 *106:60 *157:6 0.000613262
*RES
1 *1342:Y *157:6 30.2914 
2 *157:6 *157:10 18.3143 
3 *157:10 *157:14 20.7793 
4 *157:14 *1343:S 30.2914 
5 *157:14 *1345:S 23.6214 
6 *157:10 *1346:S 38 
7 *157:6 *1344:S 23.6214 
*END

*D_NET *158 0.00385867
*CONN
*I *1348:S I *D sky130_fd_sc_hd__mux2_1
*I *1351:S I *D sky130_fd_sc_hd__mux2_1
*I *1349:S I *D sky130_fd_sc_hd__mux2_1
*I *1350:S I *D sky130_fd_sc_hd__mux2_1
*I *1347:Y O *D sky130_fd_sc_hd__nand2_1
*CAP
1 *1348:S 2.56995e-05
2 *1351:S 0
3 *1349:S 0.000264746
4 *1350:S 0.000226024
5 *1347:Y 0
6 *158:36 0.000126038
7 *158:30 0.000319432
8 *158:8 0.00101504
9 *158:4 0.000691961
10 *1348:S *175:123 9.67842e-05
11 *1348:S *206:44 8.43466e-05
12 *1349:S *1349:A1 3.70187e-05
13 *1349:S *1419:RESET_B 0
14 *1349:S *173:22 2.1199e-05
15 *1349:S *173:33 4.68476e-05
16 *1349:S *178:47 0
17 *1349:S *188:30 0
18 *1350:S *1350:A0 3.70094e-05
19 *1350:S *1418:RESET_B 0
20 *1350:S *237:14 6.6869e-05
21 *1350:S *277:25 0
22 *158:8 *1261:B2 0.00010776
23 *158:8 *1418:RESET_B 2.25419e-05
24 *158:8 *237:14 3.7122e-06
25 *158:30 *1347:A 0.00018304
26 *158:30 *175:123 9.77405e-05
27 *158:30 *206:44 5.3304e-05
28 *158:36 *175:123 1.46784e-05
29 *1261:A2 *158:8 5.61255e-06
30 *1261:A2 *158:30 2.18286e-05
31 *1261:B1 *158:8 0.000152828
32 *1261:B1 *158:30 5.47983e-06
33 *1347:B *158:8 1.21972e-05
34 *107:26 *158:36 5.50934e-05
35 *109:29 *158:36 6.38433e-05
*RES
1 *1347:Y *158:4 23 
2 *158:4 *158:8 22.7679 
3 *158:8 *1350:S 42.0186 
4 *158:8 *1349:S 43.075 
5 *158:4 *158:30 3.85286 
6 *158:30 *158:36 32.61 
7 *158:36 *1351:S 23 
8 *158:30 *1348:S 24.0979 
*END

*D_NET *159 0.00599943
*CONN
*I *1456:A I *D sky130_fd_sc_hd__buf_1
*I *1455:A I *D sky130_fd_sc_hd__clkbuf_2
*I *1457:X O *D sky130_fd_sc_hd__buf_1
*CAP
1 *1456:A 0.00114795
2 *1455:A 0
3 *1457:X 4.50142e-05
4 *159:12 0.000560191
5 *159:6 0.00175316
6 *1456:A *1222:A 0.000115578
7 *1456:A *1251:B2 0
8 *1456:A *170:29 0.00137651
9 *1456:A *176:50 0.000168744
10 *1456:A *200:65 0.0002246
11 *159:12 *181:10 0.00012758
12 *159:12 *188:14 0.000109914
13 *159:12 *188:16 2.31113e-05
14 *159:12 *192:8 0.000166522
15 *159:12 *196:26 0
16 *159:12 *196:32 0
17 *1457:A *159:12 2.50347e-05
18 *1460:A *159:12 6.02277e-06
19 *4:17 *159:12 0
20 *38:10 *1456:A 0.000104628
21 *47:10 *159:12 4.48671e-05
*RES
1 *1457:X *159:6 23.6214 
2 *159:6 *159:12 42.1179 
3 *159:12 *1455:A 23 
4 *159:6 *1456:A 49.7214 
*END

*D_NET *160 0.0095578
*CONN
*I *1454:A I *D sky130_fd_sc_hd__dlymetal6s2s_1
*I *1453:A I *D sky130_fd_sc_hd__buf_2
*I *1458:X O *D sky130_fd_sc_hd__buf_1
*CAP
1 *1454:A 2.70685e-05
2 *1453:A 0
3 *1458:X 0.00118808
4 *160:25 0.00175103
5 *160:23 0.00175016
6 *160:14 0.000379011
7 *160:6 0.0015409
8 *160:14 *1345:A1 7.69935e-05
9 *160:14 *177:24 5.94125e-05
10 *160:14 *177:116 0.000157299
11 *160:14 *189:35 0
12 *160:14 *207:8 9.41704e-05
13 *160:23 *207:8 5.3304e-05
14 *160:25 *1248:B2 0.000171724
15 *160:25 *1260:B2 0.000185755
16 *160:25 *1344:A1 0.000101015
17 *160:25 *1353:RESET_B 0.000211317
18 *160:25 *177:116 0.000125506
19 *160:25 *189:8 5.61414e-05
20 *160:25 *189:21 0
21 *160:25 *189:27 0
22 *160:25 *196:100 0.000358694
23 *160:25 *199:19 0
24 *160:25 *200:114 2.06041e-05
25 *160:25 *208:24 0
26 *160:25 *209:106 0.000450174
27 *160:25 *234:25 0
28 *1216:S *160:25 0
29 *1296:S *160:25 0.000195903
30 *86:25 *160:25 0
31 *86:27 *160:25 0
32 *86:37 *160:25 0
33 *92:18 *1454:A 9.84851e-05
34 *121:10 *1454:A 3.71369e-05
35 *157:10 *160:14 3.92407e-05
36 *157:14 *160:14 0.000428682
*RES
1 *1458:X *160:6 38.8671 
2 *160:6 *160:14 38.99 
3 *160:14 *1453:A 23 
4 *160:14 *160:23 15.6214 
5 *160:23 *160:25 36.4157 
6 *160:25 *1454:A 39.0979 
*END

*D_NET *161 0.00169207
*CONN
*I *1452:A I *D sky130_fd_sc_hd__clkbuf_4
*I *1459:X O *D sky130_fd_sc_hd__clkbuf_1
*CAP
1 *1452:A 0.000187273
2 *1459:X 0.000285123
3 *161:10 0.000472396
4 *1452:A *1339:A1 9.75779e-05
5 *1452:A *174:12 5.12254e-05
6 *1452:A *174:26 2.64616e-05
7 *161:10 *174:12 0.000194327
8 *161:10 *213:27 9.74235e-05
9 *161:10 *228:8 5.66784e-05
10 *1339:S *1452:A 0.000223588
*RES
1 *1459:X *161:10 44.09 
2 *161:10 *1452:A 42.4329 
*END

*D_NET *162 0.0021084
*CONN
*I *1471:A I *D sky130_fd_sc_hd__buf_2
*I *1244:A2 I *D sky130_fd_sc_hd__a22o_1
*I *1356:Q O *D sky130_fd_sc_hd__dfrtp_1
*CAP
1 *1471:A 0
2 *1244:A2 0.000772768
3 *1356:Q 0
4 *162:23 0.000150652
5 *162:4 0.00092342
6 *162:23 *204:32 0
7 rdata[0] *162:23 2.5415e-05
8 *1244:B2 *1244:A2 0.000236146
9 *114:8 *162:23 0
*RES
1 *1356:Q *162:4 23 
2 *162:4 *1244:A2 34.6207 
3 *162:4 *162:23 32.5271 
4 *162:23 *1471:A 23 
*END

*D_NET *163 0.00170143
*CONN
*I *1472:A I *D sky130_fd_sc_hd__buf_2
*I *1255:A2 I *D sky130_fd_sc_hd__a22o_1
*I *1357:Q O *D sky130_fd_sc_hd__dfrtp_1
*CAP
1 *1472:A 0.000191961
2 *1255:A2 0.000207838
3 *1357:Q 0.000166298
4 *163:8 0.000566098
5 *1255:A2 *186:66 5.55381e-05
6 *1472:A *186:66 7.90568e-05
7 *8:10 *1255:A2 0.000161448
8 *8:10 *1472:A 0.000103516
9 *23:8 *1255:A2 0.000169674
*RES
1 *1357:Q *163:8 40.0507 
2 *163:8 *1255:A2 43.2407 
3 *163:8 *1472:A 41.8321 
*END

*D_NET *164 0.00125062
*CONN
*I *1473:A I *D sky130_fd_sc_hd__buf_2
*I *1266:A2 I *D sky130_fd_sc_hd__a22o_1
*I *1358:Q O *D sky130_fd_sc_hd__dfrtp_1
*CAP
1 *1473:A 0.000230165
2 *1266:A2 0.000353921
3 *1358:Q 0
4 *164:6 0.000584086
5 *1266:A2 *1266:A1 8.24496e-05
6 *1266:A2 *1276:S 0
7 *25:10 *1266:A2 0
*RES
1 *1358:Q *164:6 38 
2 *164:6 *1266:A2 44.8357 
3 *164:6 *1473:A 41.9564 
*END

*D_NET *165 0.00227776
*CONN
*I *1474:A I *D sky130_fd_sc_hd__buf_2
*I *1276:A1 I *D sky130_fd_sc_hd__mux2_1
*I *1359:Q O *D sky130_fd_sc_hd__dfrtp_1
*CAP
1 *1474:A 0.000366689
2 *1276:A1 0.000511011
3 *1359:Q 0
4 *165:6 0.0008777
5 *1276:A1 *1363:RESET_B 2.62973e-05
6 *1276:A1 *185:77 0.000139647
7 *1276:A1 *195:46 0
8 *1276:A1 *205:35 0.000141954
9 *1474:A *185:77 0.000132665
10 *1474:A *195:46 0
11 *25:10 *1276:A1 8.1796e-05
*RES
1 *1359:Q *165:6 38 
2 *165:6 *1276:A1 48.6264 
3 *165:6 *1474:A 45.1464 
*END

*D_NET *166 0.00703464
*CONN
*I *1277:B I *D sky130_fd_sc_hd__nand2_2
*I *1252:D1 I *D sky130_fd_sc_hd__a2111o_1
*I *1468:X O *D sky130_fd_sc_hd__buf_1
*CAP
1 *1277:B 0.000304765
2 *1252:D1 0.000454904
3 *1468:X 0.000760401
4 *166:10 0.000759668
5 *166:8 0.000760401
6 *1252:D1 *1250:A1 0.000188926
7 *1252:D1 *1365:CLK 4.58924e-05
8 *1252:D1 *1393:CLK 7.80954e-05
9 *1252:D1 *206:140 0
10 *1277:B *1250:A1 1.01436e-05
11 *1277:B *1391:RESET_B 4.57032e-05
12 *1277:B *204:16 0.000111852
13 *1277:B *205:6 5.3304e-05
14 *1277:B *205:19 3.46158e-05
15 *1277:B *268:10 0.000131744
16 *166:8 *1314:A0 6.17437e-06
17 *166:8 *1391:RESET_B 0.000688781
18 *166:8 *184:72 4.39181e-05
19 *166:8 *196:115 0.000160206
20 *1279:S *1277:B 0.000138718
21 *1286:S *1252:D1 1.05235e-05
22 *1314:S *1277:B 3.87652e-05
23 *59:10 *1252:D1 0.000110922
24 *92:18 *166:8 9.91165e-05
25 *112:12 *1277:B 2.65002e-05
26 *121:10 *166:8 0.00138991
27 *121:16 *1252:D1 0.000296017
28 *121:16 *1277:B 2.46345e-05
29 *122:10 *1252:D1 0.00012039
30 *152:25 *1252:D1 0.000139647
*RES
1 *1468:X *166:8 46.5107 
2 *166:8 *166:10 15 
3 *166:10 *1252:D1 49.3307 
4 *166:10 *1277:B 45.4364 
*END

*D_NET *167 0.00502241
*CONN
*I *1468:A I *D sky130_fd_sc_hd__buf_1
*I *1258:C1 I *D sky130_fd_sc_hd__a221o_1
*I *1269:C1 I *D sky130_fd_sc_hd__a221o_1
*I *1469:X O *D sky130_fd_sc_hd__buf_1
*CAP
1 *1468:A 4.51944e-05
2 *1258:C1 0
3 *1269:C1 7.3215e-05
4 *1469:X 0.000331337
5 *167:41 0.000481679
6 *167:31 0.000813094
7 *167:10 0.000690772
8 *1269:C1 *1269:B2 4.697e-05
9 *1269:C1 *1296:A1 1.01917e-05
10 *1269:C1 *208:24 9.84851e-05
11 *1269:C1 *234:25 0
12 *167:10 *186:97 5.72853e-05
13 *167:10 *196:100 1.69668e-05
14 *167:10 *197:120 9.5877e-05
15 *167:10 *209:98 4.9662e-05
16 *167:10 *209:126 4.05745e-05
17 *167:10 *254:10 3.70094e-05
18 *167:31 *186:91 0.00017222
19 *167:31 *186:97 2.84912e-05
20 *167:31 *196:90 6.16531e-05
21 *167:31 *196:100 3.95159e-06
22 *167:31 *208:24 0.00024723
23 *167:31 *254:10 0.000164291
24 *167:41 *1258:A1 0.0002263
25 *167:41 *186:91 0.000149341
26 *167:41 *208:39 3.42563e-05
27 *167:41 *253:8 8.85189e-05
28 *167:41 *273:14 6.39489e-06
29 *1258:A2 *167:41 0.000377181
30 *92:18 *1468:A 0.000127821
31 *92:18 *167:31 0.000139352
32 *101:26 *1269:C1 2.18409e-05
33 *102:66 *167:41 5.50049e-05
34 *106:20 *1269:C1 2.64616e-05
35 *106:20 *167:10 0.000108681
36 *121:10 *1468:A 4.93341e-05
37 *121:10 *167:31 4.57742e-05
38 *137:10 *1269:C1 0
*RES
1 *1469:X *167:10 43.2614 
2 *167:10 *1269:C1 40.0714 
3 *167:10 *167:31 22.7679 
4 *167:31 *167:41 40.3571 
5 *167:41 *1258:C1 23 
6 *167:31 *1468:A 24.5743 
*END

*D_NET *168 0.0030365
*CONN
*I *1223:B1 I *D sky130_fd_sc_hd__a22o_1
*I *1257:B1 I *D sky130_fd_sc_hd__a221o_1
*I *1287:B I *D sky130_fd_sc_hd__nand2_2
*I *1475:X O *D sky130_fd_sc_hd__buf_1
*CAP
1 *1223:B1 0
2 *1257:B1 0
3 *1287:B 6.79505e-05
4 *1475:X 6.3662e-05
5 *168:31 0.000325167
6 *168:25 0.000759037
7 *168:10 0.000565483
8 *1287:B *191:118 5.23737e-05
9 *1287:B *204:103 2.33476e-05
10 *168:10 *191:118 2.24608e-05
11 *168:25 *1288:A1 0.000228001
12 *168:25 *191:118 1.37349e-05
13 *168:25 *204:80 4.6595e-05
14 *168:25 *208:50 0.000390685
15 *168:25 *208:54 1.83564e-05
16 *168:25 *208:62 9.67842e-05
17 *168:31 *186:91 0
18 *168:31 *204:80 0
19 *1223:A2 *168:31 0
20 *1288:S *168:25 0.000313224
21 *1290:S *1287:B 3.34818e-06
22 *92:36 *168:31 0
23 *92:54 *168:25 1.41129e-05
24 *146:19 *1287:B 2.77724e-05
25 *146:19 *168:25 4.40479e-06
*RES
1 *1475:X *168:10 38.9425 
2 *168:10 *1287:B 39.7296 
3 *168:10 *168:25 25.8232 
4 *168:25 *168:31 35.4271 
5 *168:31 *1257:B1 23 
6 *168:25 *1223:B1 23 
*END

*D_NET *169 0.0101079
*CONN
*I *1282:B I *D sky130_fd_sc_hd__nand2_2
*I *1219:B1 I *D sky130_fd_sc_hd__a22o_1
*I *1257:A2 I *D sky130_fd_sc_hd__a221o_1
*I *1470:X O *D sky130_fd_sc_hd__clkbuf_2
*CAP
1 *1282:B 0
2 *1219:B1 0
3 *1257:A2 0.000414171
4 *1470:X 8.57967e-05
5 *169:48 0.00056865
6 *169:33 0.00152512
7 *169:12 0.00237118
8 *169:8 0.00108633
9 *1257:A2 *1257:A1 0.00016279
10 *1257:A2 *245:21 9.92683e-05
11 *169:12 *1366:RESET_B 6.26252e-05
12 *169:12 *172:73 0
13 *169:12 *172:86 0
14 *169:12 *190:10 0.000167452
15 *169:12 *194:93 0.000240426
16 *169:12 *196:115 0.00037402
17 *169:12 *202:42 0
18 *169:12 *205:31 0
19 *169:33 *1364:CLK 4.05745e-05
20 *169:33 *171:135 0.000151528
21 *169:33 *186:72 3.70094e-05
22 *169:33 *205:31 0
23 *169:33 *217:25 9.57123e-05
24 *169:33 *245:21 3.47645e-05
25 *169:48 *1356:CLK 0
26 *169:48 *1364:CLK 7.1915e-05
27 *169:48 *175:193 0.000132521
28 *1320:S *169:12 0
29 *1364:D *169:48 9.84794e-05
30 *30:8 *169:48 3.47781e-05
31 *32:10 *169:33 5.56203e-05
32 *57:10 *169:12 0.000192385
33 *88:72 *169:33 0.000654134
34 *89:12 *169:8 0.00010018
35 *89:25 *169:8 0.00010018
36 *90:10 *169:33 0.000141052
37 *97:35 *169:12 0.000996133
38 *142:10 *169:33 0
39 *145:52 *169:48 1.3109e-05
*RES
1 *1470:X *169:8 40.0507 
2 *169:8 *169:12 40.8514 
3 *169:12 *1257:A2 30.4468 
4 *169:12 *169:33 48.3736 
5 *169:33 *1219:B1 23 
6 *169:33 *169:48 39.425 
7 *169:48 *1282:B 23 
*END

*D_NET *170 0.00805083
*CONN
*I *1449:A I *D sky130_fd_sc_hd__buf_1
*I *1448:A I *D sky130_fd_sc_hd__clkbuf_2
*I *1460:X O *D sky130_fd_sc_hd__buf_1
*CAP
1 *1449:A 0
2 *1448:A 0.000136868
3 *1460:X 0.000743263
4 *170:29 0.00168293
5 *170:8 0.00256307
6 *1448:A *1236:C 0
7 *1448:A *173:63 0.000246748
8 *1448:A *197:40 0
9 *170:8 *192:12 0.000273412
10 *170:8 *192:23 1.57571e-05
11 *170:8 *197:14 2.93845e-05
12 *170:8 *197:23 0.000123924
13 *170:29 *1251:B2 4.72739e-05
14 *170:29 *1372:RESET_B 0.000246739
15 *170:29 *173:63 0.00042486
16 *170:29 *197:40 0
17 *1456:A *170:29 0.00137651
18 *92:18 *170:29 6.9279e-05
19 *116:14 *170:29 1.41077e-05
20 *121:10 *170:29 5.67058e-05
*RES
1 *1460:X *170:8 49.1029 
2 *170:8 *1448:A 41.3143 
3 *170:8 *170:29 43.855 
4 *170:29 *1449:A 23 
*END

*D_NET *171 0.0277146
*CONN
*I *1280:A0 I *D sky130_fd_sc_hd__mux2_1
*I *1285:A0 I *D sky130_fd_sc_hd__mux2_1
*I *1290:A0 I *D sky130_fd_sc_hd__mux2_1
*I *1340:A0 I *D sky130_fd_sc_hd__mux2_1
*I *1215:A0 I *D sky130_fd_sc_hd__mux2_1
*I *1335:A0 I *D sky130_fd_sc_hd__mux2_1
*I *1345:A0 I *D sky130_fd_sc_hd__mux2_1
*I *1330:A0 I *D sky130_fd_sc_hd__mux2_1
*I *1350:A0 I *D sky130_fd_sc_hd__mux2_1
*I *1325:A0 I *D sky130_fd_sc_hd__mux2_1
*I *1420:X O *D sky130_fd_sc_hd__buf_2
*CAP
1 *1280:A0 0.000166606
2 *1285:A0 0
3 *1290:A0 0
4 *1340:A0 0.000172135
5 *1215:A0 9.00193e-05
6 *1335:A0 7.68064e-05
7 *1345:A0 0.000657666
8 *1330:A0 0
9 *1350:A0 0.000200111
10 *1325:A0 0.000101512
11 *1420:X 0
12 *171:149 0.000958978
13 *171:135 0.00118873
14 *171:125 0.00105034
15 *171:121 0.0015782
16 *171:94 0.00134013
17 *171:81 0.000670027
18 *171:50 0.00058701
19 *171:40 0.00160516
20 *171:38 0.0005439
21 *171:36 0.000442842
22 *171:34 0.00185809
23 *171:8 0.000407285
24 *171:4 0.00196376
25 *1215:A0 *1410:RESET_B 0.000142009
26 *1215:A0 *213:14 8.48502e-06
27 *1280:A0 *1364:CLK 0
28 *1280:A0 *1366:CLK 2.64616e-05
29 *1280:A0 *207:128 0.000150977
30 *1325:A0 *277:12 0.00019747
31 *1335:A0 *221:14 9.67842e-05
32 *1340:A0 *1340:A1 3.22879e-05
33 *1340:A0 *207:84 0.000185755
34 *1345:A0 *1407:RESET_B 9.18694e-05
35 *1345:A0 *189:35 7.88926e-05
36 *1350:A0 *1398:RESET_B 0
37 *1350:A0 *1418:RESET_B 0
38 *1350:A0 *277:12 3.70187e-05
39 *171:8 *1398:RESET_B 0.000123559
40 *171:8 *277:12 0.00014196
41 *171:8 *277:25 0.000173898
42 *171:34 *1398:RESET_B 1.40958e-05
43 *171:34 *1420:A 0.000152787
44 *171:34 *179:16 0.000183733
45 *171:34 *206:69 0.000144494
46 *171:34 *214:18 1.79538e-05
47 *171:34 *221:14 1.76557e-05
48 *171:34 *225:22 4.68377e-05
49 *171:34 *277:25 9.8203e-05
50 *171:38 *225:10 3.3746e-05
51 *171:40 *179:20 0
52 *171:40 *207:145 0.000138911
53 *171:40 *225:10 7.91493e-05
54 *171:50 *207:145 4.54033e-05
55 *171:50 *221:27 0.000264098
56 *171:50 *226:8 5.47808e-05
57 *171:81 *179:49 0
58 *171:94 *1410:RESET_B 0.00030788
59 *171:94 *206:20 0.000134926
60 *171:94 *213:14 0.00081167
61 *171:121 *1274:A1 0.000209739
62 *171:121 *1341:A1 9.15299e-05
63 *171:121 *180:37 2.29192e-05
64 *171:121 *180:59 0.000196013
65 *171:121 *207:78 7.80035e-05
66 *171:121 *207:84 0.000166522
67 *171:121 *207:128 0.000554754
68 *171:125 *1270:A1 0.000170817
69 *171:125 *1282:A 0
70 *171:125 *1316:A1 0.000141294
71 *171:125 *205:19 0
72 *171:125 *207:128 0.00139173
73 *171:149 *1257:A1 9.84794e-05
74 *171:149 *1257:B2 8.63165e-05
75 *171:149 *1290:A1 0.000140259
76 *171:149 *249:8 0
77 *1215:S *1215:A0 4.9662e-05
78 *1237:A2 *171:34 0.000137079
79 *1237:B1 *171:34 0.000102313
80 *1260:A2 *171:34 7.42621e-05
81 *1262:B1 *171:81 0
82 *1264:A *171:149 0.000188733
83 *1290:S *171:149 1.21972e-05
84 *1322:B *171:34 4.33562e-05
85 *1344:S *171:34 5.50106e-05
86 *1350:S *1350:A0 3.70094e-05
87 *32:10 *171:135 4.79641e-05
88 *32:10 *171:149 0.000185428
89 *54:10 *171:125 3.46181e-05
90 *64:8 *1325:A0 0
91 *73:10 *171:50 0
92 *77:10 *171:121 0.000166002
93 *86:52 *171:81 0.000383796
94 *88:50 *171:125 8.4047e-05
95 *88:72 *171:135 9.41704e-05
96 *101:26 *171:121 9.5877e-05
97 *103:29 *171:121 6.25829e-05
98 *106:60 *171:34 0.000449826
99 *110:49 *171:81 3.87221e-06
100 *111:32 *1340:A0 5.50049e-05
101 *118:12 *171:121 0
102 *126:8 *171:149 8.4047e-05
103 *131:12 *171:81 1.05658e-05
104 *132:12 *171:81 7.74865e-06
105 *138:8 *171:121 3.62219e-05
106 *139:14 *1340:A0 0
107 *139:14 *171:121 0
108 *141:10 *171:121 0.000110913
109 *142:10 *171:121 0.000701464
110 *145:52 *171:135 0.000199731
111 *155:42 *171:38 6.16439e-05
112 *155:42 *171:81 0.000290615
113 *155:57 *171:38 0
114 *155:57 *171:40 0
115 *156:16 *1340:A0 0
116 *157:6 *171:34 0.000655829
117 *169:33 *171:135 0.000151528
*RES
1 *1420:X *171:4 23 
2 *171:4 *171:8 18.9564 
3 *171:8 *1325:A0 40.61 
4 *171:8 *1350:A0 41.7079 
5 *171:4 *171:34 35.09 
6 *171:34 *171:36 15 
7 *171:36 *171:38 1.90571 
8 *171:38 *171:40 6.83571 
9 *171:40 *171:50 27.47 
10 *171:50 *1330:A0 23 
11 *171:40 *1345:A0 47.8393 
12 *171:38 *1335:A0 39.0979 
13 *171:36 *171:81 22.54 
14 *171:81 *1215:A0 25.4236 
15 *171:81 *171:94 26.1029 
16 *171:94 *1340:A0 41.7286 
17 *171:94 *171:121 39.0286 
18 *171:121 *171:125 33.8086 
19 *171:125 *171:135 21.525 
20 *171:135 *171:149 45.4736 
21 *171:149 *1290:A0 23 
22 *171:135 *1285:A0 23 
23 *171:125 *1280:A0 40.8793 
*END

*D_NET *172 0.0110267
*CONN
*I *1300:A0 I *D sky130_fd_sc_hd__mux2_1
*I *1315:A0 I *D sky130_fd_sc_hd__mux2_1
*I *1320:A0 I *D sky130_fd_sc_hd__mux2_1
*I *1295:A0 I *D sky130_fd_sc_hd__mux2_1
*I *1310:A0 I *D sky130_fd_sc_hd__mux2_1
*I *1305:A0 I *D sky130_fd_sc_hd__mux2_1
*I *1421:X O *D sky130_fd_sc_hd__dlymetal6s2s_1
*CAP
1 *1300:A0 0
2 *1315:A0 0
3 *1320:A0 0
4 *1295:A0 0.00017158
5 *1310:A0 0
6 *1305:A0 0.000335957
7 *1421:X 0.000239675
8 *172:86 0.000175239
9 *172:73 0.000227875
10 *172:67 0.00125043
11 *172:52 0.00108874
12 *172:50 0.00149553
13 *172:35 0.00201511
14 *172:10 0.00116506
15 *1295:A0 *1258:A1 5.50106e-05
16 *1295:A0 *1295:A1 5.3304e-05
17 *1295:A0 *186:91 7.8128e-05
18 *1295:A0 *208:39 2.18409e-05
19 *1305:A0 *1305:A1 0.000187129
20 *1305:A0 *173:71 9.91101e-05
21 *172:10 *1305:A1 0
22 *172:10 *261:25 5.40337e-05
23 *172:35 *1382:RESET_B 0.000128147
24 *172:35 *204:126 0.000399459
25 *172:50 *186:91 0.000138818
26 *172:52 *186:91 7.02841e-05
27 *172:67 *1259:B2 8.65012e-06
28 *172:67 *1300:A1 7.6237e-05
29 *172:67 *257:14 7.96152e-06
30 *172:67 *269:12 1.14762e-05
31 *172:86 *205:31 1.19796e-05
32 *172:86 *269:25 1.14452e-05
33 *1258:A2 *1295:A0 1.01436e-05
34 *1295:S *1295:A0 9.75779e-05
35 *1300:S *172:67 5.41385e-05
36 *1305:S *1305:A0 9.11651e-05
37 *1310:S *172:35 5.90675e-06
38 *1310:S *172:50 6.8523e-05
39 *1370:D *172:50 1.73399e-05
40 *35:10 *1305:A0 0.000157626
41 *52:10 *172:35 0.000183235
42 *56:14 *172:67 5.50049e-05
43 *56:14 *172:86 0.000228442
44 *57:10 *172:73 2.54046e-05
45 *88:12 *172:67 1.06533e-05
46 *88:27 *172:67 0.000181316
47 *92:27 *1295:A0 0
48 *92:36 *172:50 0
49 *92:36 *172:52 0
50 *127:10 *1295:A0 0
51 *127:10 *172:52 0
52 *142:10 *172:73 0
53 *150:14 *172:35 0.000228909
54 *150:14 *172:50 2.18409e-05
55 *151:18 *172:73 0
56 *151:18 *172:86 1.12487e-05
57 *169:12 *172:73 0
58 *169:12 *172:86 0
*RES
1 *1421:X *172:10 42.2361 
2 *172:10 *1305:A0 46.4825 
3 *172:10 *172:35 28.9821 
4 *172:35 *1310:A0 23 
5 *172:35 *172:50 35.2793 
6 *172:50 *172:52 1.90571 
7 *172:52 *1295:A0 41.8321 
8 *172:52 *172:67 27.0557 
9 *172:67 *172:73 34.0186 
10 *172:73 *1320:A0 23 
11 *172:67 *172:86 33.48 
12 *172:86 *1315:A0 23 
13 *172:50 *1300:A0 38 
*END

*D_NET *173 0.0210282
*CONN
*I *1214:A0 I *D sky130_fd_sc_hd__mux2_1
*I *1344:A0 I *D sky130_fd_sc_hd__mux2_1
*I *1334:A0 I *D sky130_fd_sc_hd__mux2_1
*I *1299:A0 I *D sky130_fd_sc_hd__mux2_1
*I *1309:A0 I *D sky130_fd_sc_hd__mux2_1
*I *1294:A0 I *D sky130_fd_sc_hd__mux2_1
*I *1289:A0 I *D sky130_fd_sc_hd__mux2_1
*I *1304:A0 I *D sky130_fd_sc_hd__mux2_1
*I *1324:A0 I *D sky130_fd_sc_hd__mux2_1
*I *1349:A0 I *D sky130_fd_sc_hd__mux2_1
*I *1422:X O *D sky130_fd_sc_hd__clkbuf_2
*CAP
1 *1214:A0 0.000123416
2 *1344:A0 0
3 *1334:A0 0
4 *1299:A0 0
5 *1309:A0 0
6 *1294:A0 0
7 *1289:A0 0
8 *1304:A0 4.25104e-05
9 *1324:A0 0
10 *1349:A0 0
11 *1422:X 0
12 *173:136 0.000781369
13 *173:130 0.000904785
14 *173:118 0.000423174
15 *173:101 0.00117478
16 *173:78 0.000835455
17 *173:71 0.00042097
18 *173:63 0.00136694
19 *173:46 0.0011274
20 *173:33 0.000439146
21 *173:22 0.00110422
22 *173:12 0.00200337
23 *173:4 0.00111553
24 *1214:A0 *189:21 8.68552e-05
25 *1214:A0 *240:10 8.62876e-05
26 *1304:A0 *1238:C 5.50049e-05
27 *173:12 *1353:CLK 0.000103647
28 *173:12 *207:18 0.000150938
29 *173:12 *213:14 5.90675e-06
30 *173:12 *240:10 5.26733e-06
31 *173:22 *188:30 8.85189e-05
32 *173:22 *207:18 0.000776976
33 *173:22 *207:28 0.000272033
34 *173:33 *1246:B2 1.94685e-05
35 *173:33 *1349:A1 8.83237e-05
36 *173:33 *178:59 0.000114092
37 *173:33 *188:30 0.000108559
38 *173:46 *1246:B2 0.000307731
39 *173:46 *1381:RESET_B 5.11935e-06
40 *173:46 *178:59 4.18582e-05
41 *173:46 *188:80 0
42 *173:46 *276:12 0.00019747
43 *173:63 *1236:C 0
44 *173:63 *1238:C 0.000183733
45 *173:63 *1372:CLK 0
46 *173:63 *1372:RESET_B 7.55491e-05
47 *173:63 *1373:RESET_B 5.50106e-05
48 *173:63 *1381:RESET_B 0
49 *173:63 *191:12 0
50 *173:63 *197:14 0
51 *173:63 *209:159 0.000118018
52 *173:63 *252:6 2.64616e-05
53 *173:63 *260:8 7.55095e-05
54 *173:71 *1245:A1 0
55 *173:71 *1289:A1 0
56 *173:71 *1372:RESET_B 3.70187e-05
57 *173:71 *182:63 0.000462799
58 *173:71 *191:53 0.000171906
59 *173:78 *252:6 0.000103478
60 *173:101 *1245:A1 0.000202249
61 *173:101 *1245:B2 4.94669e-05
62 *173:101 *176:38 0.000130644
63 *173:101 *214:41 3.50803e-06
64 *173:101 *252:6 2.93335e-05
65 *173:118 *1309:A1 1.32939e-05
66 *173:118 *176:28 0.000184815
67 *173:118 *182:47 0.000271401
68 *173:118 *191:68 6.35385e-05
69 *173:118 *191:90 0.000209748
70 *173:118 *256:20 7.44354e-05
71 *173:118 *264:8 8.62876e-05
72 *173:136 *1260:B2 6.9805e-05
73 *173:136 *1344:A1 0.000308039
74 *173:136 *189:21 5.26204e-05
75 *173:136 *189:27 0.000151558
76 *173:136 *207:49 0
77 *1215:S *1214:A0 1.37246e-05
78 *1245:A2 *173:101 7.43845e-05
79 *1305:A0 *173:71 9.91101e-05
80 *1305:S *173:71 4.77213e-05
81 *1309:S *173:118 9.22159e-05
82 *1334:S *173:12 8.41896e-05
83 *1334:S *173:22 6.17437e-06
84 *1349:S *173:22 2.1199e-05
85 *1349:S *173:33 4.68476e-05
86 *1448:A *173:63 0.000246748
87 *20:10 *173:136 2.11887e-05
88 *35:10 *173:71 5.50106e-05
89 *38:10 *173:63 0
90 *39:8 *173:63 0.000139357
91 *43:10 *173:118 9.62666e-05
92 *51:10 *173:101 0.000355817
93 *85:8 *173:22 0.000377666
94 *93:27 *173:101 0.000248145
95 *106:45 *1214:A0 0
96 *106:45 *173:136 0.000503635
97 *106:60 *173:136 3.43831e-05
98 *109:10 *173:46 5.31444e-05
99 *109:41 *173:22 0.000100236
100 *109:69 *173:22 0.000248484
101 *147:40 *173:101 4.75206e-05
102 *147:40 *173:118 2.81406e-06
103 *170:29 *173:63 0.00042486
*RES
1 *1422:X *173:4 23 
2 *173:4 *173:12 15.805 
3 *173:12 *173:22 36.8743 
4 *173:22 *1349:A0 38 
5 *173:22 *173:33 6.40071 
6 *173:33 *1324:A0 38 
7 *173:33 *173:46 21.8771 
8 *173:46 *1304:A0 23.6214 
9 *173:46 *173:63 48.9121 
10 *173:63 *173:71 40.4193 
11 *173:71 *1289:A0 23 
12 *173:63 *173:78 2.05071 
13 *173:78 *1294:A0 23 
14 *173:78 *173:101 44.935 
15 *173:101 *1309:A0 23 
16 *173:101 *173:118 41.1029 
17 *173:118 *1299:A0 23 
18 *173:12 *1334:A0 23 
19 *173:4 *173:130 15 
20 *173:130 *173:136 29.8107 
21 *173:136 *1344:A0 23 
22 *173:130 *1214:A0 41.3764 
*END

*D_NET *174 0.00975768
*CONN
*I *1284:A0 I *D sky130_fd_sc_hd__mux2_1
*I *1279:A0 I *D sky130_fd_sc_hd__mux2_1
*I *1314:A0 I *D sky130_fd_sc_hd__mux2_1
*I *1319:A0 I *D sky130_fd_sc_hd__mux2_1
*I *1339:A0 I *D sky130_fd_sc_hd__mux2_1
*I *1329:A0 I *D sky130_fd_sc_hd__mux2_1
*I *1423:X O *D sky130_fd_sc_hd__buf_1
*CAP
1 *1284:A0 0
2 *1279:A0 0.000152657
3 *1314:A0 0.000296926
4 *1319:A0 0.000376869
5 *1339:A0 0
6 *1329:A0 0
7 *1423:X 0
8 *174:61 0.000762089
9 *174:50 0.00107195
10 *174:44 0.000665499
11 *174:26 0.000907551
12 *174:12 0.00118175
13 *174:6 0.000557125
14 *1279:A0 *184:48 0.000175903
15 *1279:A0 *204:164 0.00026757
16 *1279:A0 *216:26 0.000275473
17 *1314:A0 *1357:CLK 9.91798e-05
18 *174:12 *175:42 0.000209195
19 *174:12 *213:27 7.8085e-05
20 *174:26 *1338:A0 0.000215791
21 *174:26 *1408:RESET_B 0.000132624
22 *174:26 *175:42 0.000154138
23 *174:26 *179:97 8.76684e-05
24 *174:26 *186:38 0
25 *174:26 *212:29 0
26 *174:44 *175:42 6.67868e-05
27 *174:44 *175:185 0.000145926
28 *174:44 *186:49 0
29 *174:44 *213:27 2.46933e-05
30 *174:50 *206:140 0
31 *174:50 *212:29 0.00032122
32 *174:61 *204:164 0.00021356
33 *174:61 *206:140 0
34 *174:61 *212:29 0.000182065
35 *174:61 *216:26 0.000188926
36 *1279:S *1279:A0 0.000175903
37 *1284:S *174:44 2.93747e-05
38 *1284:S *174:50 4.5051e-05
39 *1286:S *174:50 0.000180224
40 *1365:D *1319:A0 7.88828e-05
41 *1452:A *174:12 5.12254e-05
42 *1452:A *174:26 2.64616e-05
43 *59:10 *1319:A0 5.50049e-05
44 *103:53 *174:26 2.24608e-05
45 *104:44 *174:26 9.85586e-06
46 *152:25 *1319:A0 7.15126e-05
47 *161:10 *174:12 0.000194327
48 *166:8 *1314:A0 6.17437e-06
*RES
1 *1423:X *174:6 38 
2 *174:6 *174:12 21.8771 
3 *174:12 *174:26 40.6504 
4 *174:26 *1329:A0 38 
5 *174:12 *1339:A0 23 
6 *174:6 *174:44 21.4007 
7 *174:44 *174:50 22.3743 
8 *174:50 *1319:A0 44.3386 
9 *174:50 *174:61 7.54 
10 *174:61 *1314:A0 42.4329 
11 *174:61 *1279:A0 43.7171 
12 *174:44 *1284:A0 23 
*END

*D_NET *175 0.0355066
*CONN
*I *1278:A0 I *D sky130_fd_sc_hd__mux2_1
*I *1318:A0 I *D sky130_fd_sc_hd__mux2_1
*I *1213:A0 I *D sky130_fd_sc_hd__mux2_1
*I *1303:A0 I *D sky130_fd_sc_hd__mux2_1
*I *1348:A0 I *D sky130_fd_sc_hd__mux2_1
*I *1333:A0 I *D sky130_fd_sc_hd__mux2_1
*I *1323:A0 I *D sky130_fd_sc_hd__mux2_1
*I *1343:A0 I *D sky130_fd_sc_hd__mux2_1
*I *1338:A0 I *D sky130_fd_sc_hd__mux2_1
*I *1328:A0 I *D sky130_fd_sc_hd__mux2_1
*I *1424:X O *D sky130_fd_sc_hd__buf_2
*CAP
1 *1278:A0 0
2 *1318:A0 8.81957e-05
3 *1213:A0 0
4 *1303:A0 0.000444473
5 *1348:A0 8.2745e-05
6 *1333:A0 9.33994e-05
7 *1323:A0 6.23335e-05
8 *1343:A0 0.000299771
9 *1338:A0 0.000242331
10 *1328:A0 0
11 *1424:X 0
12 *175:193 0.000649418
13 *175:185 0.00169326
14 *175:161 0.000126229
15 *175:144 0.0013741
16 *175:123 0.000532069
17 *175:97 0.00043954
18 *175:78 0.000723943
19 *175:76 0.00047449
20 *175:70 0.00113423
21 *175:68 0.00183423
22 *175:64 0.00274453
23 *175:62 0.00233255
24 *175:50 0.000997694
25 *175:42 0.00201853
26 *175:29 0.000575597
27 *175:27 0.000644567
28 *175:12 0.000331609
29 *175:4 0.000976176
30 *1303:A0 *1303:A1 0.000143286
31 *1303:A0 *181:22 3.87221e-06
32 *1303:A0 *192:23 0.000188927
33 *1303:A0 *200:50 0.000420022
34 *1303:A0 *214:41 0
35 *1318:A0 *180:25 9.41704e-05
36 *1323:A0 *1323:A1 5.22521e-05
37 *1333:A0 *1333:A1 1.21972e-05
38 *1333:A0 *1396:RESET_B 5.3304e-05
39 *1338:A0 *186:38 0
40 *1338:A0 *213:27 0
41 *1338:A0 *220:8 3.22879e-05
42 *1343:A0 *1404:RESET_B 0.000156581
43 *1343:A0 *177:36 4.07715e-05
44 *1343:A0 *177:62 8.60358e-05
45 *1343:A0 *223:8 0
46 *175:12 *1328:A1 0.000193388
47 *175:12 *1402:CLK 0
48 *175:12 *179:8 2.64616e-05
49 *175:12 *189:88 0
50 *175:12 *219:23 0.000294055
51 *175:27 *1234:A1 0.000105504
52 *175:27 *179:8 0.000142513
53 *175:27 *206:115 2.05084e-05
54 *175:27 *212:29 0.00026283
55 *175:27 *213:14 0.000161615
56 *175:27 *219:23 0
57 *175:42 *1249:B2 0.000216721
58 *175:42 *1339:A1 0.000275473
59 *175:42 *212:29 0
60 *175:42 *213:27 0
61 *175:50 *1392:RESET_B 7.15126e-05
62 *175:50 *190:49 7.15126e-05
63 *175:50 *271:8 3.14245e-05
64 *175:62 *220:25 0.000100108
65 *175:64 *206:28 0.00106761
66 *175:64 *207:78 0.000279361
67 *175:68 *178:20 1.31042e-05
68 *175:68 *188:60 2.64616e-05
69 *175:68 *224:8 0.000121021
70 *175:70 *1334:A1 0
71 *175:70 *188:60 6.25829e-05
72 *175:76 *177:76 0.000293795
73 *175:76 *223:20 0.000364816
74 *175:78 *177:62 8.72173e-05
75 *175:78 *177:76 2.46345e-05
76 *175:78 *223:20 8.9458e-05
77 *175:97 *1333:A1 4.17736e-05
78 *175:97 *1396:RESET_B 9.82203e-05
79 *175:97 *1404:CLK 2.59307e-05
80 *175:97 *187:42 1.06875e-05
81 *175:97 *187:44 2.52498e-05
82 *175:97 *214:12 8.87374e-05
83 *175:97 *223:12 0.00014196
84 *175:97 *275:8 0.000228903
85 *175:123 *206:44 0.000199767
86 *175:123 *206:69 3.30088e-05
87 *175:144 *188:60 0.000300098
88 *175:144 *214:35 0
89 *175:144 *238:21 8.68732e-05
90 *175:161 *1212:A 0
91 *175:161 *178:20 0
92 *175:185 *1249:B2 0.000159531
93 *175:185 *1361:RESET_B 0
94 *175:185 *1365:RESET_B 7.97004e-05
95 *175:185 *1393:RESET_B 0
96 *175:185 *184:20 0
97 *175:185 *184:48 0.000243578
98 *175:185 *184:109 5.33597e-05
99 *175:185 *186:49 0
100 *175:193 *1278:A1 5.50049e-05
101 *175:193 *1356:CLK 0
102 *175:193 *1356:RESET_B 0
103 *175:193 *185:25 0.000127195
104 *175:193 *194:45 0
105 *175:193 *204:32 0.00011436
106 *175:193 *212:29 0.000351626
107 *1261:A2 *1348:A0 9.73664e-05
108 *1278:S *175:193 2.4754e-05
109 *1283:S *175:193 0.000292205
110 *1318:S *175:50 0.000205648
111 *1318:S *175:62 8.72173e-05
112 *1323:S *1323:A0 9.8203e-05
113 *1333:S *175:76 0.000106516
114 *1334:S *175:70 4.23817e-05
115 *1334:S *175:76 3.53159e-05
116 *1339:S *175:62 0.000307126
117 *1339:S *175:64 0.000190672
118 *1348:S *175:123 9.67842e-05
119 *19:10 *175:64 1.74848e-05
120 *19:10 *175:68 8.91468e-07
121 *30:8 *175:193 0.000114092
122 *66:10 *175:12 0
123 *70:10 *175:97 0.000481943
124 *71:10 *175:70 0
125 *74:10 *175:27 0.000138718
126 *82:10 *175:123 2.24366e-06
127 *103:41 *175:62 0.000180212
128 *103:79 *175:62 8.17328e-05
129 *104:61 *175:50 0.00021356
130 *104:61 *175:62 0.000240328
131 *107:18 *175:144 2.42041e-05
132 *107:26 *175:123 0
133 *107:26 *175:144 0
134 *109:25 *1303:A0 1.00084e-05
135 *109:25 *175:144 0.000118547
136 *110:10 *175:70 0
137 *114:8 *175:193 4.73585e-05
138 *118:8 *175:64 0.000132711
139 *140:6 *175:144 4.12995e-05
140 *145:20 *175:185 0.00134149
141 *145:20 *175:193 6.35385e-05
142 *145:42 *175:193 7.39034e-05
143 *153:42 *175:123 1.63371e-05
144 *154:27 *175:12 1.47563e-05
145 *156:61 *1338:A0 0.000270682
146 *156:61 *175:27 0.000190614
147 *158:30 *175:123 9.77405e-05
148 *158:36 *175:123 1.46784e-05
149 *169:48 *175:193 0.000132521
150 *174:12 *175:42 0.000209195
151 *174:26 *1338:A0 0.000215791
152 *174:26 *175:42 0.000154138
153 *174:44 *175:42 6.67868e-05
154 *174:44 *175:185 0.000145926
*RES
1 *1424:X *175:4 23 
2 *175:4 *175:12 37.4571 
3 *175:12 *1328:A0 23 
4 *175:4 *175:27 44.0236 
5 *175:27 *175:29 15 
6 *175:29 *1338:A0 43.9657 
7 *175:29 *175:42 9.65286 
8 *175:42 *175:50 39.7771 
9 *175:50 *175:62 23.0579 
10 *175:62 *175:64 30.6364 
11 *175:64 *175:68 22.2914 
12 *175:68 *175:70 6.13143 
13 *175:70 *175:76 9.01071 
14 *175:76 *175:78 1.55357 
15 *175:78 *1343:A0 44.1729 
16 *175:78 *175:97 40.8543 
17 *175:97 *1323:A0 39.5743 
18 *175:76 *1333:A0 39.0979 
19 *175:70 *175:123 38.845 
20 *175:123 *1348:A0 39.0979 
21 *175:68 *175:144 45.8257 
22 *175:144 *1303:A0 47.5907 
23 *175:64 *175:161 32.2579 
24 *175:161 *1213:A0 23 
25 *175:50 *1318:A0 39.0979 
26 *175:42 *175:185 40.0229 
27 *175:185 *175:193 46.7371 
28 *175:193 *1278:A0 23 
*END

*D_NET *176 0.0169586
*CONN
*I *1283:A0 I *D sky130_fd_sc_hd__mux2_1
*I *1313:A0 I *D sky130_fd_sc_hd__mux2_1
*I *1298:A0 I *D sky130_fd_sc_hd__mux2_1
*I *1288:A0 I *D sky130_fd_sc_hd__mux2_1
*I *1308:A0 I *D sky130_fd_sc_hd__mux2_1
*I *1293:A0 I *D sky130_fd_sc_hd__mux2_1
*I *1425:X O *D sky130_fd_sc_hd__dlymetal6s2s_1
*CAP
1 *1283:A0 0
2 *1313:A0 0
3 *1298:A0 0.000287917
4 *1288:A0 0
5 *1308:A0 0
6 *1293:A0 0
7 *1425:X 0.000114804
8 *176:91 0.000130386
9 *176:62 0.00055805
10 *176:50 0.000362939
11 *176:38 0.000832819
12 *176:28 0.00133042
13 *176:20 0.00292341
14 *176:12 0.00207808
15 *176:6 0.000530531
16 *1298:A0 *1368:RESET_B 0.000317769
17 *1298:A0 *204:80 2.8936e-05
18 *1298:A0 *247:10 0
19 *1298:A0 *255:31 0
20 *176:6 *1425:A 4.17736e-05
21 *176:12 *1282:A 0.000294034
22 *176:12 *1313:A1 5.50106e-05
23 *176:12 *1425:A 9.5877e-05
24 *176:20 *1282:A 0.000197435
25 *176:20 *1313:A1 0.000137651
26 *176:20 *194:19 0.000902092
27 *176:20 *194:32 0.000200964
28 *176:28 *182:47 1.03836e-05
29 *176:28 *182:106 1.01436e-05
30 *176:28 *186:91 0.000327912
31 *176:28 *196:90 5.94125e-05
32 *176:28 *208:50 7.08351e-05
33 *176:28 *256:20 1.32939e-05
34 *176:38 *1245:A1 6.17437e-06
35 *176:38 *182:47 0.000139352
36 *176:38 *263:14 0.000460587
37 *176:50 *214:41 7.09774e-05
38 *176:62 *1368:RESET_B 0.00053263
39 *176:62 *182:106 0.000184165
40 *176:62 *186:91 0.000531319
41 *176:62 *204:80 4.59027e-05
42 *176:91 *1356:RESET_B 0.000357939
43 *1245:A2 *176:38 0.000139974
44 *1283:S *176:91 0.000114656
45 *1298:S *1298:A0 1.94812e-05
46 *1299:S *176:28 0.000358425
47 *1300:S *176:28 0.00025393
48 *1308:S *176:28 5.3304e-05
49 *1456:A *176:50 0.000168744
50 *44:8 *176:28 0.000116314
51 *50:8 *176:28 0
52 *93:27 *176:38 0.000257343
53 *145:8 *176:12 5.25848e-05
54 *145:20 *176:91 4.27794e-05
55 *145:42 *176:91 3.83778e-05
56 *147:12 *176:38 0.000481198
57 *147:40 *176:38 0.000185434
58 *148:32 *1298:A0 0
59 *149:24 *176:50 0.000118621
60 *173:101 *176:38 0.000130644
61 *173:118 *176:28 0.000184815
*RES
1 *1425:X *176:6 25.0507 
2 *176:6 *176:12 6.98071 
3 *176:12 *176:20 43.1714 
4 *176:20 *176:28 33.705 
5 *176:28 *176:38 44.9971 
6 *176:38 *176:50 37.2086 
7 *176:50 *1293:A0 23 
8 *176:28 *1308:A0 23 
9 *176:20 *176:62 9.65286 
10 *176:62 *1288:A0 38 
11 *176:62 *1298:A0 44.4007 
12 *176:12 *1313:A0 23 
13 *176:6 *176:91 34.7229 
14 *176:91 *1283:A0 23 
*END

*D_NET *177 0.0151285
*CONN
*I *1353:RESET_B I *D sky130_fd_sc_hd__dfrtp_1
*I *1413:RESET_B I *D sky130_fd_sc_hd__dfrtp_1
*I *1416:RESET_B I *D sky130_fd_sc_hd__dfrtp_1
*I *1418:RESET_B I *D sky130_fd_sc_hd__dfrtp_1
*I *1398:RESET_B I *D sky130_fd_sc_hd__dfrtp_1
*I *1396:RESET_B I *D sky130_fd_sc_hd__dfrtp_1
*I *1412:RESET_B I *D sky130_fd_sc_hd__dfrtp_1
*I *1404:RESET_B I *D sky130_fd_sc_hd__dfrtp_1
*I *1415:RESET_B I *D sky130_fd_sc_hd__dfrtp_1
*I *1414:RESET_B I *D sky130_fd_sc_hd__dfrtp_1
*I *1426:X O *D sky130_fd_sc_hd__clkbuf_4
*CAP
1 *1353:RESET_B 0.000200896
2 *1413:RESET_B 0
3 *1416:RESET_B 8.59389e-05
4 *1418:RESET_B 0.000378742
5 *1398:RESET_B 0.000327884
6 *1396:RESET_B 0.00040281
7 *1412:RESET_B 3.27288e-05
8 *1404:RESET_B 0.000257209
9 *1415:RESET_B 6.70072e-05
10 *1414:RESET_B 0.000409688
11 *1426:X 8.60823e-05
12 *177:116 0.000543536
13 *177:80 0.00153737
14 *177:76 0.0013315
15 *177:62 0.000982112
16 *177:36 0.000322128
17 *177:34 0.000882068
18 *177:24 0.0010604
19 *177:12 0.000422976
20 *1353:RESET_B *234:25 0.000132119
21 *1396:RESET_B *1333:A1 4.67488e-05
22 *1396:RESET_B *187:42 9.32992e-05
23 *1396:RESET_B *223:12 7.59794e-05
24 *1396:RESET_B *275:8 0.000128391
25 *1398:RESET_B *214:35 0
26 *1398:RESET_B *277:12 0
27 *1398:RESET_B *277:25 8.4047e-05
28 *1404:RESET_B *231:25 0.000114083
29 *1412:RESET_B *187:70 2.56078e-05
30 *1414:RESET_B *1402:RESET_B 0.000118623
31 *1414:RESET_B *233:8 6.16164e-05
32 *1415:RESET_B *1414:CLK 3.16784e-05
33 *1415:RESET_B *234:10 9.41704e-05
34 *1418:RESET_B *1261:B2 0.000259945
35 *1418:RESET_B *237:14 9.67842e-05
36 *1418:RESET_B *277:25 0.000225275
37 *177:12 *1402:RESET_B 3.44502e-05
38 *177:12 *1414:CLK 6.51763e-05
39 *177:12 *233:8 0.000411905
40 *177:12 *234:10 9.5877e-05
41 *177:24 *1345:A1 5.94125e-05
42 *177:34 *1414:CLK 6.03276e-05
43 *177:34 *187:70 0.000139352
44 *177:34 *187:74 8.84817e-06
45 *177:34 *231:6 4.2573e-05
46 *177:34 *231:14 5.3304e-05
47 *177:34 *234:10 0.000135037
48 *177:36 *231:25 8.72173e-05
49 *177:62 *187:78 0
50 *177:62 *231:25 3.47781e-05
51 *177:76 *1240:A1 1.73873e-05
52 *177:76 *223:20 3.84478e-06
53 *177:80 *1416:CLK 0.000212348
54 *177:116 *1260:B2 0.000332911
55 *177:116 *1345:A1 1.01436e-05
56 *177:116 *234:25 7.70494e-05
57 *1240:B1 *177:76 6.17437e-06
58 *1261:A2 *1418:RESET_B 5.90675e-06
59 *1261:B1 *1418:RESET_B 7.53384e-06
60 *1333:A0 *1396:RESET_B 5.3304e-05
61 *1333:S *177:62 8.94487e-05
62 *1333:S *177:76 0.000318429
63 *1343:A0 *1404:RESET_B 0.000156581
64 *1343:A0 *177:36 4.07715e-05
65 *1343:A0 *177:62 8.60358e-05
66 *1350:A0 *1398:RESET_B 0
67 *1350:A0 *1418:RESET_B 0
68 *1350:S *1418:RESET_B 0
69 *1414:D *177:12 2.93845e-05
70 *78:10 *1404:RESET_B 0.000221386
71 *153:12 *1398:RESET_B 0
72 *157:10 *177:116 9.45388e-05
73 *158:8 *1418:RESET_B 2.25419e-05
74 *160:14 *177:24 5.94125e-05
75 *160:14 *177:116 0.000157299
76 *160:25 *1353:RESET_B 0.000211317
77 *160:25 *177:116 0.000125506
78 *171:8 *1398:RESET_B 0.000123559
79 *171:34 *1398:RESET_B 1.40958e-05
80 *175:76 *177:76 0.000293795
81 *175:78 *177:62 8.72173e-05
82 *175:78 *177:76 2.46345e-05
83 *175:97 *1396:RESET_B 9.82203e-05
*RES
1 *1426:X *1414:RESET_B 25.4546 
2 *1414:RESET_B *177:12 9.62179 
3 *177:12 *1415:RESET_B 1.5225 
4 *177:12 *177:24 15.8493 
5 *177:24 *177:34 40.3157 
6 *177:34 *177:36 1.20143 
7 *177:36 *1404:RESET_B 21.4111 
8 *177:36 *1412:RESET_B 15.5489 
9 *177:34 *177:62 3.72857 
10 *177:62 *1396:RESET_B 23.1718 
11 *177:62 *177:76 22.8507 
12 *177:76 *177:80 25.6264 
13 *177:80 *1398:RESET_B 21.4939 
14 *177:80 *1418:RESET_B 23.7725 
15 *177:76 *1416:RESET_B 2.51679 
16 *177:24 *177:116 8.24429 
17 *177:116 *1413:RESET_B 15 
18 *177:116 *1353:RESET_B 20.7793 
*END

*D_NET *178 0.0107045
*CONN
*I *1405:RESET_B I *D sky130_fd_sc_hd__dfrtp_1
*I *1399:RESET_B I *D sky130_fd_sc_hd__dfrtp_1
*I *1380:RESET_B I *D sky130_fd_sc_hd__dfrtp_1
*I *1381:RESET_B I *D sky130_fd_sc_hd__dfrtp_1
*I *1397:RESET_B I *D sky130_fd_sc_hd__dfrtp_1
*I *1417:RESET_B I *D sky130_fd_sc_hd__dfrtp_1
*I *1419:RESET_B I *D sky130_fd_sc_hd__dfrtp_1
*I *1352:RESET_B I *D sky130_fd_sc_hd__dfrtp_1
*I *1427:X O *D sky130_fd_sc_hd__buf_2
*CAP
1 *1405:RESET_B 2.79044e-05
2 *1399:RESET_B 0.000158643
3 *1380:RESET_B 0.000500059
4 *1381:RESET_B 0.000846176
5 *1397:RESET_B 3.89381e-05
6 *1417:RESET_B 3.6205e-05
7 *1419:RESET_B 0.000118125
8 *1352:RESET_B 0.00128967
9 *1427:X 0.000522001
10 *178:59 0.000592846
11 *178:49 0.000574393
12 *178:47 0.000697696
13 *178:28 0.000915711
14 *178:20 0.0013845
15 *1352:RESET_B *239:8 0.000139511
16 *1380:RESET_B *188:80 5.3304e-05
17 *1380:RESET_B *209:25 0.000347506
18 *1380:RESET_B *209:33 0.00020382
19 *1381:RESET_B *196:32 0
20 *1381:RESET_B *197:14 9.63758e-05
21 *1381:RESET_B *201:18 0
22 *1381:RESET_B *209:25 4.83949e-05
23 *1381:RESET_B *260:8 0
24 *1397:RESET_B *196:32 0
25 *1405:RESET_B *188:60 2.8521e-05
26 *1417:RESET_B *188:24 1.22775e-06
27 *1417:RESET_B *188:39 1.27153e-05
28 *178:20 *1212:A 0
29 *178:20 *1213:A1 2.96369e-05
30 *178:20 *188:60 5.02073e-05
31 *178:20 *206:34 0
32 *178:20 *224:8 8.10857e-05
33 *178:28 *188:47 0.000638924
34 *178:28 *188:60 0.00011277
35 *178:28 *207:28 0.000180519
36 *178:47 *188:47 0.00014764
37 *178:47 *188:67 3.86348e-05
38 *178:47 *188:80 3.31127e-05
39 *178:49 *188:39 0.000132396
40 *178:49 *236:8 9.84794e-05
41 *178:59 *196:32 0
42 *178:59 *276:12 0.000102365
43 *1349:S *1419:RESET_B 0
44 *1349:S *178:47 0
45 *1399:D *1399:RESET_B 0.000103405
46 *109:10 *1381:RESET_B 0.000114074
47 *110:10 *178:20 0
48 *140:6 *1352:RESET_B 3.27969e-05
49 *173:33 *178:59 0.000114092
50 *173:46 *1381:RESET_B 5.11935e-06
51 *173:46 *178:59 4.18582e-05
52 *173:63 *1381:RESET_B 0
53 *175:68 *178:20 1.31042e-05
54 *175:161 *178:20 0
*RES
1 *1427:X *1352:RESET_B 30.8611 
2 *1352:RESET_B *178:20 41.9936 
3 *178:20 *178:28 26.2686 
4 *178:28 *1419:RESET_B 16.9057 
5 *178:28 *178:47 20.5514 
6 *178:47 *178:49 6.33857 
7 *178:49 *1417:RESET_B 0.548929 
8 *178:49 *178:59 20.6032 
9 *178:59 *1397:RESET_B 15.9425 
10 *178:59 *1381:RESET_B 21.1521 
11 *1381:RESET_B *1380:RESET_B 10.9786 
12 *178:47 *1399:RESET_B 2.93107 
13 *178:20 *1405:RESET_B 1.04607 
*END

*D_NET *179 0.0134698
*CONN
*I *1408:RESET_B I *D sky130_fd_sc_hd__dfrtp_1
*I *1401:RESET_B I *D sky130_fd_sc_hd__dfrtp_1
*I *1400:RESET_B I *D sky130_fd_sc_hd__dfrtp_1
*I *1403:RESET_B I *D sky130_fd_sc_hd__dfrtp_1
*I *1355:RESET_B I *D sky130_fd_sc_hd__dfrtp_1
*I *1410:RESET_B I *D sky130_fd_sc_hd__dfrtp_1
*I *1354:RESET_B I *D sky130_fd_sc_hd__dfrtp_1
*I *1406:RESET_B I *D sky130_fd_sc_hd__dfrtp_1
*I *1402:RESET_B I *D sky130_fd_sc_hd__dfrtp_1
*I *1407:RESET_B I *D sky130_fd_sc_hd__dfrtp_1
*I *1428:X O *D sky130_fd_sc_hd__clkbuf_4
*CAP
1 *1408:RESET_B 0.000127467
2 *1401:RESET_B 0
3 *1400:RESET_B 0.000318018
4 *1403:RESET_B 2.00578e-05
5 *1355:RESET_B 0.000196122
6 *1410:RESET_B 0.000461102
7 *1354:RESET_B 0
8 *1406:RESET_B 0
9 *1402:RESET_B 0.000627693
10 *1407:RESET_B 0.000139877
11 *1428:X 0
12 *179:97 0.000315619
13 *179:85 0.000615604
14 *179:56 0.00078357
15 *179:49 0.000378645
16 *179:20 0.000975798
17 *179:18 0.000319494
18 *179:16 0.00103446
19 *179:8 0.00130812
20 *179:4 0.000726609
21 *1355:RESET_B *207:49 0.000363877
22 *1400:RESET_B *1424:A 3.0647e-05
23 *1400:RESET_B *186:18 0
24 *1400:RESET_B *186:38 0
25 *1400:RESET_B *212:29 1.58805e-05
26 *1400:RESET_B *219:8 7.80291e-05
27 *1402:RESET_B *1426:A 0.000217629
28 *1407:RESET_B *189:35 0
29 *1408:RESET_B *212:29 0.000126548
30 *1410:RESET_B *206:20 0.000310937
31 *179:8 *1424:A 0.000230604
32 *179:8 *222:8 7.06229e-05
33 *179:16 *1335:A1 5.50106e-05
34 *179:16 *189:65 0.000181573
35 *179:16 *221:14 1.6558e-05
36 *179:16 *222:8 4.9346e-05
37 *179:16 *225:22 9.67842e-05
38 *179:18 *207:49 0.000203416
39 *179:18 *225:10 8.93663e-05
40 *179:20 *189:35 0
41 *179:20 *207:49 0.000120405
42 *179:20 *225:10 3.55887e-05
43 *179:49 *1262:A1 3.96203e-05
44 *179:49 *207:49 0.000325816
45 *179:56 *1215:A1 7.45278e-05
46 *179:56 *1262:A1 5.6209e-05
47 *179:56 *207:49 0.000314943
48 *179:85 *1424:A 1.03836e-05
49 *179:85 *212:8 9.67842e-05
50 *179:97 *186:38 0
51 *179:97 *212:29 0.000163448
52 *1215:A0 *1410:RESET_B 0.000142009
53 *1215:S *1410:RESET_B 1.41077e-05
54 *1260:A2 *179:16 0.000132076
55 *1262:B1 *1355:RESET_B 0
56 *1345:A0 *1407:RESET_B 9.18694e-05
57 *1414:RESET_B *1402:RESET_B 0.000118623
58 *86:52 *1355:RESET_B 4.3407e-05
59 *86:52 *179:56 1.7992e-05
60 *103:8 *1355:RESET_B 0
61 *110:49 *179:49 2.05503e-05
62 *131:12 *179:49 1.05658e-05
63 *132:12 *179:49 0.000100228
64 *154:19 *1400:RESET_B 0
65 *155:57 *179:16 0.000140259
66 *171:34 *179:16 0.000183733
67 *171:40 *179:20 0
68 *171:81 *179:49 0
69 *171:94 *1410:RESET_B 0.00030788
70 *174:26 *1408:RESET_B 0.000132624
71 *174:26 *179:97 8.76684e-05
72 *175:12 *179:8 2.64616e-05
73 *175:27 *179:8 0.000142513
74 *177:12 *1402:RESET_B 3.44502e-05
*RES
1 *1428:X *179:4 23 
2 *179:4 *179:8 13.3814 
3 *179:8 *179:16 29.6036 
4 *179:16 *179:18 2.96214 
5 *179:18 *179:20 4.37071 
6 *179:20 *1407:RESET_B 17.5789 
7 *179:20 *1402:RESET_B 25.2432 
8 *179:18 *1406:RESET_B 15 
9 *179:16 *179:49 4.72286 
10 *179:49 *1354:RESET_B 15 
11 *179:49 *179:56 4.37071 
12 *179:56 *1410:RESET_B 24.7668 
13 *179:56 *1355:RESET_B 20.075 
14 *179:8 *1403:RESET_B 0.424643 
15 *179:4 *179:85 16.5743 
16 *179:85 *1400:RESET_B 20.2925 
17 *179:85 *179:97 4.72286 
18 *179:97 *1401:RESET_B 15 
19 *179:97 *1408:RESET_B 18.6664 
*END

*D_NET *180 0.00889424
*CONN
*I *1365:RESET_B I *D sky130_fd_sc_hd__dfrtp_1
*I *1367:RESET_B I *D sky130_fd_sc_hd__dfrtp_1
*I *1395:RESET_B I *D sky130_fd_sc_hd__dfrtp_1
*I *1411:RESET_B I *D sky130_fd_sc_hd__dfrtp_1
*I *1409:RESET_B I *D sky130_fd_sc_hd__dfrtp_1
*I *1392:RESET_B I *D sky130_fd_sc_hd__dfrtp_1
*I *1429:X O *D sky130_fd_sc_hd__clkbuf_2
*CAP
1 *1365:RESET_B 0.000329426
2 *1367:RESET_B 0
3 *1395:RESET_B 0.000357157
4 *1411:RESET_B 3.82019e-05
5 *1409:RESET_B 0.00116114
6 *1392:RESET_B 0.000256481
7 *1429:X 0.000256481
8 *180:59 0.000509703
9 *180:37 0.000949235
10 *180:25 0.00120758
11 *180:12 0.000403564
12 *1365:RESET_B *1249:B2 0.000202721
13 *1365:RESET_B *212:29 0.000329201
14 *1392:RESET_B *1429:A 6.17437e-06
15 *1392:RESET_B *213:27 5.50049e-05
16 *1392:RESET_B *271:8 6.15432e-05
17 *1395:RESET_B *190:33 7.18992e-06
18 *1395:RESET_B *207:64 7.24698e-05
19 *1409:RESET_B *1249:B2 6.32688e-05
20 *1409:RESET_B *1339:A1 1.83667e-05
21 *1409:RESET_B *212:29 0.000166522
22 *180:59 *207:78 0
23 *180:59 *207:128 0.000291656
24 *1318:A0 *180:25 9.41704e-05
25 *1318:S *180:25 7.15126e-05
26 *1409:D *180:25 9.4713e-05
27 *1411:D *1411:RESET_B 6.17437e-06
28 *31:8 *1365:RESET_B 0.000141879
29 *61:10 *180:59 0
30 *89:33 *180:59 1.61361e-05
31 *103:29 *1411:RESET_B 9.4646e-06
32 *103:29 *180:25 3.59255e-06
33 *103:35 *180:25 0.000193771
34 *138:8 *180:59 0.000504565
35 *139:14 *1395:RESET_B 0.000183733
36 *139:14 *180:37 0
37 *141:10 *180:59 9.41704e-05
38 *142:10 *180:59 8.4047e-05
39 *145:20 *1365:RESET_B 0.000283088
40 *171:121 *180:37 2.29192e-05
41 *171:121 *180:59 0.000196013
42 *175:50 *1392:RESET_B 7.15126e-05
43 *175:185 *1365:RESET_B 7.97004e-05
*RES
1 *1429:X *1392:RESET_B 27.8575 
2 *1392:RESET_B *180:12 15 
3 *180:12 *1409:RESET_B 17.2579 
4 *1409:RESET_B *180:25 15.9604 
5 *180:25 *1411:RESET_B 1.04607 
6 *180:25 *180:37 16.2014 
7 *180:37 *1395:RESET_B 20.4789 
8 *180:37 *180:59 41.8486 
9 *180:59 *1367:RESET_B 15 
10 *180:12 *1365:RESET_B 25.0671 
*END

*D_NET *181 0.0041381
*CONN
*I *1447:A I *D sky130_fd_sc_hd__clkbuf_2
*I *1461:X O *D sky130_fd_sc_hd__clkbuf_1
*CAP
1 *1447:A 0
2 *1461:X 4.75785e-05
3 *181:22 0.00158368
4 *181:10 0.00163125
5 *181:10 *188:16 6.54744e-05
6 *181:22 *1247:A1 5.79559e-05
7 *181:22 *200:18 0.000490891
8 *181:22 *201:37 7.17251e-05
9 *181:22 *214:41 8.21456e-06
10 *181:22 *260:35 4.98782e-05
11 *1303:A0 *181:22 3.87221e-06
12 *159:12 *181:10 0.00012758
*RES
1 *1461:X *181:10 47.7296 
2 *181:10 *181:22 28.5013 
3 *181:22 *1447:A 23 
*END

*D_NET *182 0.0136218
*CONN
*I *1368:RESET_B I *D sky130_fd_sc_hd__dfrtp_1
*I *1370:RESET_B I *D sky130_fd_sc_hd__dfrtp_1
*I *1377:RESET_B I *D sky130_fd_sc_hd__dfrtp_1
*I *1369:RESET_B I *D sky130_fd_sc_hd__dfrtp_1
*I *1372:RESET_B I *D sky130_fd_sc_hd__dfrtp_1
*I *1373:RESET_B I *D sky130_fd_sc_hd__dfrtp_1
*I *1384:RESET_B I *D sky130_fd_sc_hd__dfrtp_1
*I *1385:RESET_B I *D sky130_fd_sc_hd__dfrtp_1
*I *1374:RESET_B I *D sky130_fd_sc_hd__dfrtp_1
*I *1375:RESET_B I *D sky130_fd_sc_hd__dfrtp_1
*I *1430:X O *D sky130_fd_sc_hd__clkbuf_4
*CAP
1 *1368:RESET_B 0.000337108
2 *1370:RESET_B 0
3 *1377:RESET_B 4.07811e-05
4 *1369:RESET_B 3.60629e-05
5 *1372:RESET_B 0.000268425
6 *1373:RESET_B 9.01108e-05
7 *1384:RESET_B 1.93488e-05
8 *1385:RESET_B 3.60099e-05
9 *1374:RESET_B 5.7027e-05
10 *1375:RESET_B 0
11 *1430:X 0.000193059
12 *182:106 0.000846653
13 *182:92 0.000897884
14 *182:63 0.000763215
15 *182:57 0.00110723
16 *182:47 0.000948569
17 *182:33 0.000751205
18 *182:29 0.000888509
19 *182:19 0.000450483
20 *182:10 0.000498022
21 *1368:RESET_B *208:50 0.000518945
22 *1369:RESET_B *1384:CLK 5.31385e-05
23 *1372:RESET_B *191:12 0
24 *1372:RESET_B *251:12 0
25 *1377:RESET_B *256:10 5.03619e-05
26 *1385:RESET_B *191:62 2.33744e-05
27 *182:10 *202:8 3.55887e-05
28 *182:10 *209:106 7.15126e-05
29 *182:10 *254:10 9.67842e-05
30 *182:19 *202:8 3.04021e-05
31 *182:33 *191:62 4.96717e-05
32 *182:47 *1308:A1 0.000127821
33 *182:47 *191:90 1.22803e-05
34 *182:47 *263:6 0.000185428
35 *182:57 *1384:CLK 3.18142e-05
36 *182:57 *248:8 1.10915e-05
37 *182:63 *1384:CLK 1.94682e-05
38 *182:63 *191:10 0
39 *182:63 *191:12 0
40 *182:63 *191:43 3.16784e-05
41 *182:92 *196:75 0
42 *182:92 *208:31 0
43 *182:92 *208:50 0
44 *182:106 *194:19 7.44354e-05
45 *182:106 *208:50 0.000194309
46 *182:106 *256:10 9.52814e-06
47 *1295:S *182:19 3.74442e-05
48 *1295:S *182:29 3.98859e-05
49 *1295:S *182:92 2.22183e-05
50 *1296:S *182:10 0
51 *1296:S *182:19 9.99686e-05
52 *1298:A0 *1368:RESET_B 0.000317769
53 *1308:S *182:47 2.64616e-05
54 *1309:S *182:47 0.000244526
55 *34:8 *1368:RESET_B 4.58924e-05
56 *35:10 *182:63 2.76611e-06
57 *39:8 *1373:RESET_B 1.94335e-05
58 *40:10 *182:19 4.21594e-06
59 *40:10 *182:29 3.14274e-05
60 *40:10 *182:33 0.000140259
61 *50:8 *1384:RESET_B 2.33744e-05
62 *50:8 *182:47 9.74722e-05
63 *50:8 *182:57 0.000208038
64 *95:42 *182:19 0
65 *95:42 *182:29 0
66 *95:42 *182:92 0
67 *99:16 *1372:RESET_B 0
68 *99:55 *182:10 0.000107238
69 *101:10 *182:10 0.000183088
70 *147:27 *1372:RESET_B 0
71 *147:40 *1374:RESET_B 2.5214e-05
72 *148:14 *182:92 0
73 *148:32 *1368:RESET_B 0
74 *150:18 *182:47 6.25829e-05
75 *170:29 *1372:RESET_B 0.000246739
76 *173:63 *1372:RESET_B 7.55491e-05
77 *173:63 *1373:RESET_B 5.50106e-05
78 *173:71 *1372:RESET_B 3.70187e-05
79 *173:71 *182:63 0.000462799
80 *173:118 *182:47 0.000271401
81 *176:28 *182:47 1.03836e-05
82 *176:28 *182:106 1.01436e-05
83 *176:38 *182:47 0.000139352
84 *176:62 *1368:RESET_B 0.00053263
85 *176:62 *182:106 0.000184165
*RES
1 *1430:X *182:10 43.7586 
2 *182:10 *1375:RESET_B 15 
3 *182:10 *182:19 6.40071 
4 *182:19 *1374:RESET_B 16.0254 
5 *182:19 *182:29 1.90571 
6 *182:29 *182:33 22.2914 
7 *182:33 *1385:RESET_B 0.548929 
8 *182:33 *182:47 38.9279 
9 *182:47 *1384:RESET_B 0.548929 
10 *182:47 *182:57 9.69429 
11 *182:57 *182:63 23.6586 
12 *182:63 *1373:RESET_B 16.6468 
13 *182:63 *1372:RESET_B 20.7793 
14 *182:57 *1369:RESET_B 1.5225 
15 *182:29 *182:92 21.1314 
16 *182:92 *1377:RESET_B 1.02536 
17 *182:92 *182:106 23.7207 
18 *182:106 *1370:RESET_B 15 
19 *182:106 *1368:RESET_B 26.4136 
*END

*D_NET *183 0.0069714
*CONN
*I *1379:RESET_B I *D sky130_fd_sc_hd__dfrtp_1
*I *1387:RESET_B I *D sky130_fd_sc_hd__dfrtp_1
*I *1386:RESET_B I *D sky130_fd_sc_hd__dfrtp_1
*I *1371:RESET_B I *D sky130_fd_sc_hd__dfrtp_1
*I *1383:RESET_B I *D sky130_fd_sc_hd__dfrtp_1
*I *1382:RESET_B I *D sky130_fd_sc_hd__dfrtp_1
*I *1431:X O *D sky130_fd_sc_hd__clkbuf_2
*CAP
1 *1379:RESET_B 0.000157318
2 *1387:RESET_B 6.84591e-05
3 *1386:RESET_B 6.66116e-05
4 *1371:RESET_B 0.000334054
5 *1383:RESET_B 7.47789e-05
6 *1382:RESET_B 0.000513786
7 *1431:X 0
8 *183:61 0.000771803
9 *183:28 0.000513971
10 *183:16 0.00135171
11 *183:12 0.000907468
12 *183:4 0.000654095
13 *1371:RESET_B *193:55 0
14 *1379:RESET_B *1268:A1 0
15 *1379:RESET_B *193:68 0
16 *1383:RESET_B *262:6 6.17437e-06
17 *1386:RESET_B *1256:B2 0
18 *1386:RESET_B *261:25 2.8521e-05
19 *183:12 *261:25 7.83309e-07
20 *183:16 *193:55 9.90751e-05
21 *183:16 *214:41 2.81066e-05
22 *183:16 *261:25 5.03425e-05
23 *183:61 *1268:A1 0
24 *183:61 *1431:A 7.24365e-05
25 *183:61 *193:68 0
26 *183:61 *266:10 0
27 *37:10 *1371:RESET_B 0
28 *49:8 *1383:RESET_B 0.000182165
29 *53:10 *183:61 4.58924e-05
30 *93:46 *183:61 9.8971e-06
31 *100:50 *183:61 0.000237171
32 *146:54 *1371:RESET_B 0.000218962
33 *146:54 *1382:RESET_B 0.000244526
34 *146:54 *183:28 0.000164282
35 *150:14 *183:12 4.08641e-05
36 *150:14 *183:61 0
37 *172:35 *1382:RESET_B 0.000128147
*RES
1 *1431:X *183:4 23 
2 *183:4 *183:12 31.8229 
3 *183:12 *183:16 24.1971 
4 *183:16 *1382:RESET_B 24.5804 
5 *183:16 *183:28 2.25786 
6 *183:28 *1383:RESET_B 16.9782 
7 *183:28 *1371:RESET_B 21.8979 
8 *183:12 *1386:RESET_B 1.75036 
9 *183:4 *183:61 24.715 
10 *183:61 *1387:RESET_B 16.0254 
11 *183:61 *1379:RESET_B 17.6721 
*END

*D_NET *184 0.0149778
*CONN
*I *1356:RESET_B I *D sky130_fd_sc_hd__dfrtp_1
*I *1388:RESET_B I *D sky130_fd_sc_hd__dfrtp_1
*I *1389:RESET_B I *D sky130_fd_sc_hd__dfrtp_1
*I *1390:RESET_B I *D sky130_fd_sc_hd__dfrtp_1
*I *1378:RESET_B I *D sky130_fd_sc_hd__dfrtp_1
*I *1394:RESET_B I *D sky130_fd_sc_hd__dfrtp_1
*I *1391:RESET_B I *D sky130_fd_sc_hd__dfrtp_1
*I *1361:RESET_B I *D sky130_fd_sc_hd__dfrtp_1
*I *1357:RESET_B I *D sky130_fd_sc_hd__dfrtp_1
*I *1393:RESET_B I *D sky130_fd_sc_hd__dfrtp_1
*I *1432:X O *D sky130_fd_sc_hd__clkbuf_4
*CAP
1 *1356:RESET_B 0.000491624
2 *1388:RESET_B 0.000438619
3 *1389:RESET_B 2.00578e-05
4 *1390:RESET_B 5.67775e-05
5 *1378:RESET_B 0.00016939
6 *1394:RESET_B 0.000180293
7 *1391:RESET_B 0.00130595
8 *1361:RESET_B 0.000416047
9 *1357:RESET_B 0
10 *1393:RESET_B 0.00021364
11 *1432:X 0.000189549
12 *184:109 0.00106424
13 *184:89 0.000576747
14 *184:72 0.00134411
15 *184:48 0.00103306
16 *184:42 0.000818983
17 *184:20 0.000475441
18 *184:8 0.000627275
19 *1356:RESET_B *1364:RESET_B 3.81391e-05
20 *1356:RESET_B *185:25 1.4471e-05
21 *1356:RESET_B *186:66 0
22 *1361:RESET_B *186:66 0.00040121
23 *1378:RESET_B *194:19 0.000140423
24 *1388:RESET_B *194:43 9.0946e-05
25 *1388:RESET_B *267:10 0.000132736
26 *1390:RESET_B *194:19 9.76463e-05
27 *1390:RESET_B *269:25 0.00013404
28 *1391:RESET_B *194:81 5.50106e-05
29 *1391:RESET_B *204:16 1.94812e-05
30 *1393:RESET_B *186:49 1.83667e-05
31 *1393:RESET_B *186:66 4.17929e-05
32 *1393:RESET_B *272:8 0.000130525
33 *1394:RESET_B *1320:A1 9.62666e-05
34 *184:8 *1432:A 3.71369e-05
35 *184:20 *186:66 0.000163168
36 *184:42 *216:10 6.88885e-05
37 *184:48 *186:66 0
38 *184:48 *194:81 0.000210461
39 *184:48 *204:16 2.79543e-05
40 *184:48 *216:10 8.62876e-05
41 *184:72 *1320:A1 0.000259077
42 *184:72 *194:87 8.56284e-05
43 *184:89 *269:12 0.000114092
44 *184:109 *186:66 0
45 *1277:B *1391:RESET_B 4.57032e-05
46 *1279:A0 *184:48 0.000175903
47 *1279:S *184:48 0.000220759
48 *1283:S *1356:RESET_B 2.11887e-05
49 *1320:S *184:72 6.95665e-05
50 *88:8 *1394:RESET_B 0.000117254
51 *88:8 *184:89 0.000169185
52 *92:27 *1394:RESET_B 6.16039e-05
53 *92:36 *184:89 0
54 *97:35 *184:89 0.000122297
55 *112:12 *1391:RESET_B 0.000212621
56 *114:8 *1356:RESET_B 6.48142e-05
57 *121:16 *1391:RESET_B 2.71291e-05
58 *128:8 *184:89 0.000114083
59 *142:10 *184:72 0.000105165
60 *145:20 *1356:RESET_B 8.46523e-05
61 *145:20 *184:109 9.27814e-05
62 *166:8 *1391:RESET_B 0.000688781
63 *166:8 *184:72 4.39181e-05
64 *175:185 *1361:RESET_B 0
65 *175:185 *1393:RESET_B 0
66 *175:185 *184:20 0
67 *175:185 *184:48 0.000243578
68 *175:185 *184:109 5.33597e-05
69 *175:193 *1356:RESET_B 0
70 *176:91 *1356:RESET_B 0.000357939
*RES
1 *1432:X *184:8 40.5271 
2 *184:8 *1393:RESET_B 19.4846 
3 *184:8 *184:20 4.37071 
4 *184:20 *1357:RESET_B 15 
5 *184:20 *1361:RESET_B 21.5457 
6 *1361:RESET_B *184:42 18.3039 
7 *184:42 *184:48 26.0821 
8 *184:48 *1391:RESET_B 41.2789 
9 *1391:RESET_B *184:72 43.0811 
10 *184:72 *1394:RESET_B 33.6043 
11 *184:72 *184:89 38.9486 
12 *184:89 *1378:RESET_B 2.93107 
13 *184:89 *1390:RESET_B 1.97821 
14 *184:48 *1389:RESET_B 0.424643 
15 *184:42 *184:109 3.31429 
16 *184:109 *1388:RESET_B 22.2189 
17 *184:109 *1356:RESET_B 26.4136 
*END

*D_NET *185 0.011187
*CONN
*I *1359:RESET_B I *D sky130_fd_sc_hd__dfrtp_1
*I *1376:RESET_B I *D sky130_fd_sc_hd__dfrtp_1
*I *1358:RESET_B I *D sky130_fd_sc_hd__dfrtp_1
*I *1362:RESET_B I *D sky130_fd_sc_hd__dfrtp_1
*I *1366:RESET_B I *D sky130_fd_sc_hd__dfrtp_1
*I *1363:RESET_B I *D sky130_fd_sc_hd__dfrtp_1
*I *1360:RESET_B I *D sky130_fd_sc_hd__dfrtp_1
*I *1364:RESET_B I *D sky130_fd_sc_hd__dfrtp_1
*I *1433:X O *D sky130_fd_sc_hd__buf_2
*CAP
1 *1359:RESET_B 7.59987e-06
2 *1376:RESET_B 0.000265938
3 *1358:RESET_B 0.00088217
4 *1362:RESET_B 6.98285e-06
5 *1366:RESET_B 0.000239429
6 *1363:RESET_B 0.000873596
7 *1360:RESET_B 0
8 *1364:RESET_B 4.88916e-05
9 *1433:X 8.07593e-05
10 *185:77 0.00124591
11 *185:52 0.00107893
12 *185:44 0.00145459
13 *185:25 0.00150032
14 *185:8 0.000756379
15 *1358:RESET_B *195:29 9.7551e-05
16 *1358:RESET_B *195:46 9.1889e-05
17 *1359:RESET_B *195:46 1.12709e-05
18 *1362:RESET_B *186:76 1.4969e-05
19 *1364:RESET_B *186:66 0.000114074
20 *1366:RESET_B *186:76 9.68547e-05
21 *1366:RESET_B *205:31 0.000100293
22 *1366:RESET_B *217:12 0.000181125
23 *1376:RESET_B *1358:CLK 3.22879e-05
24 *1376:RESET_B *195:25 6.79362e-05
25 *1376:RESET_B *195:29 8.40137e-05
26 *185:8 *243:12 9.5877e-05
27 *185:25 *1356:CLK 0
28 *185:25 *186:66 5.94125e-05
29 *185:25 *186:72 0.000136687
30 *185:25 *204:24 0
31 *185:25 *204:32 0
32 *185:25 *204:51 0
33 *185:25 *215:8 0
34 *185:25 *243:12 0.000140259
35 *185:25 *243:20 0.000310641
36 *185:52 *186:76 1.19087e-05
37 *185:52 *195:52 0
38 *185:52 *195:54 0
39 *185:52 *207:128 0
40 *185:77 *195:46 5.23752e-05
41 *185:77 *195:52 0
42 *1276:A1 *1363:RESET_B 2.62973e-05
43 *1276:A1 *185:77 0.000139647
44 *1283:S *185:25 0.000182832
45 *1356:RESET_B *1364:RESET_B 3.81391e-05
46 *1356:RESET_B *185:25 1.4471e-05
47 *1362:D *185:52 0.000132178
48 *1474:A *185:77 0.000132665
49 *26:8 *185:25 4.58924e-05
50 *29:10 *185:52 0
51 *94:20 *185:52 8.4047e-05
52 *97:35 *1366:RESET_B 6.0093e-05
53 *113:10 *185:25 0
54 *169:12 *1366:RESET_B 6.26252e-05
55 *175:193 *185:25 0.000127195
*RES
1 *1433:X *185:8 39.0979 
2 *185:8 *1364:RESET_B 16.5536 
3 *185:8 *185:25 45.0593 
4 *185:25 *1360:RESET_B 15 
5 *185:25 *1363:RESET_B 27.2732 
6 *1363:RESET_B *185:44 15 
7 *185:44 *185:52 28.0707 
8 *185:52 *1366:RESET_B 37.0221 
9 *185:52 *1362:RESET_B 0.548929 
10 *185:44 *185:77 25.2536 
11 *185:77 *1358:RESET_B 10.818 
12 *1358:RESET_B *1376:RESET_B 5.71714 
13 *185:77 *1359:RESET_B 0.548929 
*END

*D_NET *186 0.0275994
*CONN
*I *1433:A I *D sky130_fd_sc_hd__buf_2
*I *1430:A I *D sky130_fd_sc_hd__clkbuf_4
*I *1427:A I *D sky130_fd_sc_hd__buf_2
*I *1431:A I *D sky130_fd_sc_hd__clkbuf_2
*I *1432:A I *D sky130_fd_sc_hd__clkbuf_4
*I *1429:A I *D sky130_fd_sc_hd__clkbuf_2
*I *1428:A I *D sky130_fd_sc_hd__clkbuf_4
*I *1426:A I *D sky130_fd_sc_hd__clkbuf_4
*I *1434:X O *D sky130_fd_sc_hd__buf_2
*CAP
1 *1433:A 0.000115182
2 *1430:A 0
3 *1427:A 0
4 *1431:A 0.000705567
5 *1432:A 5.25533e-05
6 *1429:A 7.0687e-05
7 *1428:A 0
8 *1426:A 0.000566508
9 *1434:X 0
10 *186:97 0.000863334
11 *186:91 0.00161523
12 *186:76 0.00229286
13 *186:72 0.00173399
14 *186:66 0.00212335
15 *186:49 0.00174678
16 *186:38 0.00175589
17 *186:18 0.00128177
18 *186:8 0.00087446
19 *186:4 0.00125976
20 *1426:A *221:14 9.91701e-05
21 *1431:A *204:93 8.96211e-05
22 *1433:A *243:12 5.10805e-05
23 *186:8 *1424:A 0.000185434
24 *186:8 *212:8 3.17516e-05
25 *186:18 *1402:CLK 9.84794e-05
26 *186:38 *1434:A 0.000177899
27 *186:38 *211:8 0
28 *186:38 *212:8 2.07355e-05
29 *186:38 *213:27 0.000675699
30 *186:38 *227:21 0.000272312
31 *186:49 *1249:A1 0.00011218
32 *186:49 *213:27 2.55642e-05
33 *186:49 *244:8 5.09988e-05
34 *186:66 *243:8 0
35 *186:72 *1366:CLK 4.19743e-05
36 *186:72 *217:25 0.000268873
37 *186:72 *243:12 1.21972e-05
38 *186:72 *243:20 0.000114595
39 *186:76 *217:12 1.14762e-05
40 *186:91 *196:90 0.000297262
41 *186:91 *249:8 3.21223e-05
42 *186:91 *253:8 0.000114083
43 *186:97 *196:100 9.84851e-05
44 *186:97 *197:139 0.000357
45 *186:97 *201:92 2.68708e-05
46 *186:97 *201:105 5.90667e-05
47 *186:97 *201:122 0
48 *186:97 *209:134 0.000129536
49 *186:97 *254:10 0.000194309
50 *1216:S *186:97 3.70187e-05
51 *1255:A2 *186:66 5.55381e-05
52 *1258:A2 *186:91 3.14151e-05
53 *1269:A2 *186:91 1.59208e-05
54 *1269:A2 *186:97 1.02387e-05
55 *1280:S *186:72 0.000400193
56 *1283:S *186:72 0.000182832
57 *1295:A0 *186:91 7.8128e-05
58 *1338:A0 *186:38 0
59 *1356:RESET_B *186:66 0
60 *1361:RESET_B *186:66 0.00040121
61 *1362:RESET_B *186:76 1.4969e-05
62 *1364:RESET_B *186:66 0.000114074
63 *1366:RESET_B *186:76 9.68547e-05
64 *1392:RESET_B *1429:A 6.17437e-06
65 *1393:RESET_B *186:49 1.83667e-05
66 *1393:RESET_B *186:66 4.17929e-05
67 *1400:RESET_B *186:18 0
68 *1400:RESET_B *186:38 0
69 *1402:RESET_B *1426:A 0.000217629
70 *1459:A *186:38 0
71 *1472:A *186:66 7.90568e-05
72 *21:10 *186:97 2.93845e-05
73 *23:8 *186:66 0.000169674
74 *28:8 *186:72 0.000114083
75 *66:10 *186:18 0.00010018
76 *92:42 *1431:A 0.000389772
77 *92:42 *186:76 0.000528927
78 *93:46 *1431:A 0.000616664
79 *94:20 *186:72 0.000399291
80 *99:55 *186:91 1.02561e-05
81 *106:20 *186:97 3.08224e-05
82 *106:35 *186:97 0.000127569
83 *113:10 *186:72 0.00010018
84 *140:6 *186:97 0.000132166
85 *142:10 *186:72 7.76364e-06
86 *144:29 *186:72 0.0002246
87 *154:19 *186:18 8.33469e-05
88 *154:21 *186:18 3.31683e-05
89 *167:10 *186:97 5.72853e-05
90 *167:31 *186:91 0.00017222
91 *167:31 *186:97 2.84912e-05
92 *167:41 *186:91 0.000149341
93 *168:31 *186:91 0
94 *169:33 *186:72 3.70094e-05
95 *172:50 *186:91 0.000138818
96 *172:52 *186:91 7.02841e-05
97 *174:26 *186:38 0
98 *174:44 *186:49 0
99 *175:185 *186:49 0
100 *176:28 *186:91 0.000327912
101 *176:62 *186:91 0.000531319
102 *179:97 *186:38 0
103 *183:61 *1431:A 7.24365e-05
104 *184:8 *1432:A 3.71369e-05
105 *184:20 *186:66 0.000163168
106 *184:48 *186:66 0
107 *184:109 *186:66 0
108 *185:25 *186:66 5.94125e-05
109 *185:25 *186:72 0.000136687
110 *185:52 *186:76 1.19087e-05
*RES
1 *1434:X *186:4 23 
2 *186:4 *186:8 3.50071 
3 *186:8 *186:18 43.4643 
4 *186:18 *1426:A 35.0764 
5 *186:8 *1428:A 23 
6 *186:4 *186:38 36.8329 
7 *186:38 *1429:A 39.0979 
8 *186:38 *186:49 11.7657 
9 *186:49 *1432:A 39.0979 
10 *186:49 *186:66 39.6293 
11 *186:66 *186:72 36.5843 
12 *186:72 *186:76 30.3907 
13 *186:76 *1431:A 38.9086 
14 *186:76 *186:91 36.9779 
15 *186:91 *186:97 33.5393 
16 *186:97 *1427:A 23 
17 *186:91 *1430:A 38 
18 *186:66 *1433:A 25.4236 
*END

*D_NET *187 0.0129749
*CONN
*I *1398:CLK I *D sky130_fd_sc_hd__dfrtp_1
*I *1416:CLK I *D sky130_fd_sc_hd__dfrtp_1
*I *1415:CLK I *D sky130_fd_sc_hd__dfrtp_1
*I *1414:CLK I *D sky130_fd_sc_hd__dfrtp_1
*I *1353:CLK I *D sky130_fd_sc_hd__dfrtp_1
*I *1413:CLK I *D sky130_fd_sc_hd__dfrtp_1
*I *1412:CLK I *D sky130_fd_sc_hd__dfrtp_1
*I *1404:CLK I *D sky130_fd_sc_hd__dfrtp_1
*I *1396:CLK I *D sky130_fd_sc_hd__dfrtp_1
*I *1418:CLK I *D sky130_fd_sc_hd__dfrtp_1
*I *1435:X O *D sky130_fd_sc_hd__clkbuf_2
*CAP
1 *1398:CLK 0
2 *1416:CLK 0.000420235
3 *1415:CLK 0
4 *1414:CLK 0.000693135
5 *1353:CLK 0.000358728
6 *1413:CLK 2.27984e-05
7 *1412:CLK 3.54124e-05
8 *1404:CLK 0.000459899
9 *1396:CLK 2.34823e-05
10 *1418:CLK 0
11 *1435:X 0
12 *187:78 0.000854158
13 *187:74 0.0012867
14 *187:70 0.000579737
15 *187:59 0.000533597
16 *187:44 0.000638964
17 *187:42 0.00124915
18 *187:29 0.00138505
19 *187:23 0.000841104
20 *187:12 0.000254869
21 *187:4 0.000423647
22 *1353:CLK *207:16 0.000415115
23 *1412:CLK *1323:A1 1.78821e-05
24 *1414:CLK *234:10 1.14762e-05
25 *1416:CLK *206:69 0.000186054
26 *187:12 *196:32 0
27 *187:23 *196:32 3.7122e-06
28 *187:70 *1323:A1 8.95707e-05
29 *187:70 *231:14 0.00016281
30 *187:78 *207:16 0.000369939
31 *187:78 *231:25 0
32 *1325:S *187:29 4.55818e-05
33 *1325:S *187:42 4.40432e-05
34 *1333:S *187:78 0
35 *1396:RESET_B *187:42 9.32992e-05
36 *1404:D *1404:CLK 9.53106e-05
37 *1412:RESET_B *187:70 2.56078e-05
38 *1415:RESET_B *1414:CLK 3.16784e-05
39 *1416:D *1416:CLK 2.93431e-05
40 *70:10 *1404:CLK 0.000215735
41 *70:10 *187:44 8.71559e-05
42 *79:8 *187:78 0
43 *81:10 *187:78 0.000140949
44 *84:10 *187:12 3.81391e-05
45 *107:30 *1416:CLK 0.000110356
46 *110:49 *1413:CLK 2.93845e-05
47 *111:12 *1413:CLK 1.94812e-05
48 *153:12 *1416:CLK 0
49 *173:12 *1353:CLK 0.000103647
50 *175:97 *1404:CLK 2.59307e-05
51 *175:97 *187:42 1.06875e-05
52 *175:97 *187:44 2.52498e-05
53 *177:12 *1414:CLK 6.51763e-05
54 *177:34 *1414:CLK 6.03276e-05
55 *177:34 *187:70 0.000139352
56 *177:34 *187:74 8.84817e-06
57 *177:62 *187:78 0
58 *177:80 *1416:CLK 0.000212348
*RES
1 *1435:X *187:4 23 
2 *187:4 *187:12 34.7643 
3 *187:12 *1418:CLK 23 
4 *187:4 *187:23 17.8793 
5 *187:23 *187:29 26.9314 
6 *187:29 *1396:CLK 23.4971 
7 *187:29 *187:42 24.2179 
8 *187:42 *187:44 2.96214 
9 *187:44 *1404:CLK 46.4514 
10 *187:44 *187:59 15.8493 
11 *187:59 *1412:CLK 23.6214 
12 *187:59 *187:70 9.69429 
13 *187:70 *187:74 1.94714 
14 *187:74 *187:78 24.3007 
15 *187:78 *1413:CLK 38.6214 
16 *187:78 *1353:CLK 45.83 
17 *187:74 *1414:CLK 33.0464 
18 *187:70 *1415:CLK 23 
19 *187:42 *1416:CLK 47.1557 
20 *187:23 *1398:CLK 38 
*END

*D_NET *188 0.0104289
*CONN
*I *1381:CLK I *D sky130_fd_sc_hd__dfrtp_1
*I *1397:CLK I *D sky130_fd_sc_hd__dfrtp_1
*I *1417:CLK I *D sky130_fd_sc_hd__dfrtp_1
*I *1380:CLK I *D sky130_fd_sc_hd__dfrtp_1
*I *1399:CLK I *D sky130_fd_sc_hd__dfrtp_1
*I *1352:CLK I *D sky130_fd_sc_hd__dfrtp_1
*I *1405:CLK I *D sky130_fd_sc_hd__dfrtp_1
*I *1419:CLK I *D sky130_fd_sc_hd__dfrtp_1
*I *1436:X O *D sky130_fd_sc_hd__clkbuf_2
*CAP
1 *1381:CLK 0.000137018
2 *1397:CLK 4.24211e-05
3 *1417:CLK 0
4 *1380:CLK 0
5 *1399:CLK 0
6 *1352:CLK 0
7 *1405:CLK 0
8 *1419:CLK 0
9 *1436:X 0.000223261
10 *188:80 0.000620169
11 *188:67 0.000646981
12 *188:60 0.000374115
13 *188:47 0.000824529
14 *188:39 0.000883876
15 *188:30 0.000201717
16 *188:24 0.00126113
17 *188:20 0.000960583
18 *188:16 0.000599638
19 *188:14 0.000609676
20 *188:14 *192:12 9.75779e-05
21 *188:16 *196:32 0
22 *188:20 *196:32 0
23 *188:30 *196:32 0
24 *188:47 *1349:A1 0
25 *188:60 *224:20 0.000207437
26 *188:67 *1349:A1 0
27 *188:80 *1236:C 0.000257278
28 *188:80 *1246:B2 0
29 *188:80 *1349:A1 0
30 *188:80 *200:18 2.05503e-05
31 *188:80 *209:33 5.3304e-05
32 *188:80 *209:159 0.000107762
33 *188:80 *214:35 0
34 *1326:S *188:47 7.87243e-05
35 *1349:S *188:30 0
36 *1380:RESET_B *188:80 5.3304e-05
37 *1405:RESET_B *188:60 2.8521e-05
38 *1417:RESET_B *188:24 1.22775e-06
39 *1417:RESET_B *188:39 1.27153e-05
40 *1460:A *188:14 0.000154677
41 *3:17 *1381:CLK 6.17437e-06
42 *3:17 *188:14 0
43 *3:17 *188:16 0
44 *63:10 *188:20 0
45 *65:10 *188:47 2.18926e-05
46 *83:10 *188:20 4.21594e-06
47 *107:18 *188:80 0
48 *159:12 *188:14 0.000109914
49 *159:12 *188:16 2.31113e-05
50 *173:22 *188:30 8.85189e-05
51 *173:33 *188:30 0.000108559
52 *173:46 *188:80 0
53 *175:68 *188:60 2.64616e-05
54 *175:70 *188:60 6.25829e-05
55 *175:144 *188:60 0.000300098
56 *178:20 *188:60 5.02073e-05
57 *178:28 *188:47 0.000638924
58 *178:28 *188:60 0.00011277
59 *178:47 *188:47 0.00014764
60 *178:47 *188:67 3.86348e-05
61 *178:47 *188:80 3.31127e-05
62 *178:49 *188:39 0.000132396
63 *181:10 *188:16 6.54744e-05
*RES
1 *1436:X *188:14 43.3029 
2 *188:14 *188:16 5.42714 
3 *188:16 *188:20 20.7793 
4 *188:20 *188:24 8.61714 
5 *188:24 *188:30 34.7229 
6 *188:30 *1419:CLK 23 
7 *188:24 *188:39 20.8621 
8 *188:39 *188:47 25.9993 
9 *188:47 *1405:CLK 23 
10 *188:47 *188:60 40.8129 
11 *188:60 *1352:CLK 23 
12 *188:39 *188:67 0.849286 
13 *188:67 *1399:CLK 38 
14 *188:67 *188:80 27.035 
15 *188:80 *1380:CLK 23 
16 *188:20 *1417:CLK 23 
17 *188:16 *1397:CLK 38.6214 
18 *188:14 *1381:CLK 40.0714 
*END

*D_NET *189 0.0125021
*CONN
*I *1354:CLK I *D sky130_fd_sc_hd__dfrtp_1
*I *1403:CLK I *D sky130_fd_sc_hd__dfrtp_1
*I *1400:CLK I *D sky130_fd_sc_hd__dfrtp_1
*I *1408:CLK I *D sky130_fd_sc_hd__dfrtp_1
*I *1410:CLK I *D sky130_fd_sc_hd__dfrtp_1
*I *1401:CLK I *D sky130_fd_sc_hd__dfrtp_1
*I *1402:CLK I *D sky130_fd_sc_hd__dfrtp_1
*I *1406:CLK I *D sky130_fd_sc_hd__dfrtp_1
*I *1407:CLK I *D sky130_fd_sc_hd__dfrtp_1
*I *1355:CLK I *D sky130_fd_sc_hd__dfrtp_1
*I *1437:X O *D sky130_fd_sc_hd__clkbuf_2
*CAP
1 *1354:CLK 8.13085e-05
2 *1403:CLK 2.71584e-05
3 *1400:CLK 0
4 *1408:CLK 0.000203607
5 *1410:CLK 4.85178e-05
6 *1401:CLK 6.70756e-05
7 *1402:CLK 0.000239913
8 *1406:CLK 0
9 *1407:CLK 0
10 *1355:CLK 6.53585e-05
11 *1437:X 8.72735e-05
12 *189:101 0.000395356
13 *189:88 0.000699073
14 *189:71 0.000728678
15 *189:69 0.000209034
16 *189:65 0.000713103
17 *189:53 0.00145292
18 *189:35 0.000406132
19 *189:27 0.00175097
20 *189:21 0.000880038
21 *189:8 0.000528215
22 *1403:CLK *1271:B2 3.3123e-05
23 *1403:CLK *221:14 2.55642e-05
24 *1408:CLK *1234:A1 4.56101e-05
25 *1408:CLK *206:20 3.71369e-05
26 *1408:CLK *213:14 0.000248446
27 *1408:CLK *219:23 5.50106e-05
28 *1410:CLK *206:20 7.24365e-05
29 *1410:CLK *213:14 0.000103637
30 *189:21 *1248:B2 0.000395754
31 *189:27 *1248:B2 0.000164374
32 *189:27 *1344:A1 0.00032067
33 *189:27 *207:45 3.71251e-05
34 *189:35 *1260:B2 0
35 *189:35 *1345:A1 0
36 *189:35 *207:49 0
37 *189:53 *1271:B2 3.83778e-05
38 *189:53 *207:8 0
39 *189:53 *207:45 1.68097e-05
40 *189:53 *207:145 1.17821e-05
41 *189:53 *221:14 8.62876e-05
42 *189:53 *225:10 0.000132178
43 *189:65 *1271:B2 0
44 *189:65 *1331:A1 8.62783e-05
45 *189:65 *207:84 7.76364e-06
46 *189:69 *207:84 9.84851e-05
47 *189:88 *207:84 0
48 *189:88 *219:23 0
49 *1214:A0 *189:21 8.68552e-05
50 *1215:S *189:21 0
51 *1216:S *189:8 0
52 *1216:S *189:21 0
53 *1234:A2 *1408:CLK 5.3304e-05
54 *1260:A2 *1403:CLK 4.6318e-06
55 *1331:S *189:69 0.000418598
56 *1345:A0 *189:35 7.88926e-05
57 *1355:D *1355:CLK 6.17437e-06
58 *1406:D *189:53 7.24365e-05
59 *1407:RESET_B *189:35 0
60 *21:10 *189:8 3.5664e-05
61 *66:10 *1402:CLK 4.48568e-05
62 *72:8 *189:27 0
63 *72:8 *189:35 0
64 *76:10 *189:101 0
65 *80:8 *189:35 5.56203e-05
66 *87:17 *1355:CLK 7.88926e-05
67 *87:19 *189:21 0
68 *103:53 *189:88 0
69 *111:32 *1401:CLK 0.00014196
70 *111:32 *189:101 5.0135e-05
71 *155:42 *1354:CLK 5.12328e-05
72 *156:16 *1401:CLK 9.67842e-05
73 *156:16 *189:88 8.51329e-05
74 *160:14 *189:35 0
75 *160:25 *189:8 5.61414e-05
76 *160:25 *189:21 0
77 *160:25 *189:27 0
78 *173:136 *189:21 5.26204e-05
79 *173:136 *189:27 0.000151558
80 *175:12 *1402:CLK 0
81 *175:12 *189:88 0
82 *179:16 *189:65 0.000181573
83 *179:20 *189:35 0
84 *186:18 *1402:CLK 9.84794e-05
*RES
1 *1437:X *189:8 40.2579 
2 *189:8 *1355:CLK 39.5743 
3 *189:8 *189:21 8.86571 
4 *189:21 *189:27 24.6943 
5 *189:27 *189:35 37.3536 
6 *189:35 *1407:CLK 23 
7 *189:27 *1406:CLK 23 
8 *189:27 *189:53 28.1536 
9 *189:53 *189:65 38.0579 
10 *189:65 *189:69 20.8621 
11 *189:69 *189:71 15 
12 *189:71 *1402:CLK 42.06 
13 *189:71 *189:88 9.36286 
14 *189:88 *1401:CLK 40.0507 
15 *189:88 *189:101 17.61 
16 *189:101 *1410:CLK 25.0507 
17 *189:101 *1408:CLK 28.3857 
18 *189:69 *1400:CLK 23 
19 *189:53 *1403:CLK 38.8493 
20 *189:21 *1354:CLK 39.5743 
*END

*D_NET *190 0.00701388
*CONN
*I *1367:CLK I *D sky130_fd_sc_hd__dfrtp_1
*I *1365:CLK I *D sky130_fd_sc_hd__dfrtp_1
*I *1409:CLK I *D sky130_fd_sc_hd__dfrtp_1
*I *1392:CLK I *D sky130_fd_sc_hd__dfrtp_1
*I *1395:CLK I *D sky130_fd_sc_hd__dfrtp_1
*I *1411:CLK I *D sky130_fd_sc_hd__dfrtp_1
*I *1438:X O *D sky130_fd_sc_hd__dlymetal6s2s_1
*CAP
1 *1367:CLK 0
2 *1365:CLK 0.000276116
3 *1409:CLK 8.76626e-05
4 *1392:CLK 0
5 *1395:CLK 0
6 *1411:CLK 0
7 *1438:X 0.000230881
8 *190:49 0.000573405
9 *190:40 0.000620822
10 *190:33 0.000634154
11 *190:22 0.0001462
12 *190:16 0.000925111
13 *190:10 0.000786834
14 *1365:CLK *206:129 0.000219882
15 *1365:CLK *206:140 0.000387572
16 *1409:CLK *206:129 0.000218952
17 *190:10 *202:42 0
18 *190:16 *202:42 0
19 *190:16 *207:64 0.000103637
20 *190:16 *207:104 0
21 *190:16 *207:117 0
22 *190:22 *207:78 0.000222104
23 *190:22 *207:104 5.24393e-05
24 *190:33 *207:64 2.02872e-05
25 *190:40 *1274:A1 3.71369e-05
26 *190:49 *271:8 3.65917e-05
27 *1252:D1 *1365:CLK 4.58924e-05
28 *1274:A2 *190:40 0.000313249
29 *1274:B1 *190:40 3.22879e-05
30 *1320:S *190:10 0
31 *1321:S *190:16 0
32 *1392:D *190:49 6.70361e-05
33 *1395:RESET_B *190:33 7.18992e-06
34 *33:12 *190:10 4.21594e-06
35 *33:12 *190:16 5.93018e-05
36 *58:8 *1409:CLK 0.000110913
37 *104:12 *190:16 0
38 *104:12 *190:22 0
39 *104:61 *1365:CLK 0.000182791
40 *104:61 *1409:CLK 5.20305e-05
41 *117:18 *1365:CLK 1.05658e-05
42 *137:10 *190:10 9.84851e-05
43 *139:14 *190:33 4.2185e-05
44 *139:14 *190:40 0.0001164
45 *142:8 *190:40 5.25848e-05
46 *152:25 *1365:CLK 0
47 *169:12 *190:10 0.000167452
48 *175:50 *190:49 7.15126e-05
*RES
1 *1438:X *190:10 42.06 
2 *190:10 *190:16 24.5907 
3 *190:16 *190:22 33.6664 
4 *190:22 *1411:CLK 23 
5 *190:16 *190:33 3.52143 
6 *190:33 *1395:CLK 23 
7 *190:33 *190:40 9.19714 
8 *190:40 *1392:CLK 23 
9 *190:40 *190:49 18.48 
10 *190:49 *1409:CLK 40.9621 
11 *190:49 *1365:CLK 46.2443 
12 *190:10 *1367:CLK 38 
*END

*D_NET *191 0.0124354
*CONN
*I *1384:CLK I *D sky130_fd_sc_hd__dfrtp_1
*I *1368:CLK I *D sky130_fd_sc_hd__dfrtp_1
*I *1370:CLK I *D sky130_fd_sc_hd__dfrtp_1
*I *1377:CLK I *D sky130_fd_sc_hd__dfrtp_1
*I *1374:CLK I *D sky130_fd_sc_hd__dfrtp_1
*I *1375:CLK I *D sky130_fd_sc_hd__dfrtp_1
*I *1385:CLK I *D sky130_fd_sc_hd__dfrtp_1
*I *1369:CLK I *D sky130_fd_sc_hd__dfrtp_1
*I *1373:CLK I *D sky130_fd_sc_hd__dfrtp_1
*I *1372:CLK I *D sky130_fd_sc_hd__dfrtp_1
*I *1439:X O *D sky130_fd_sc_hd__clkbuf_2
*CAP
1 *1384:CLK 0.00010219
2 *1368:CLK 0
3 *1370:CLK 0
4 *1377:CLK 0.000140285
5 *1374:CLK 0.000173794
6 *1375:CLK 0.000264557
7 *1385:CLK 0
8 *1369:CLK 9.21927e-05
9 *1373:CLK 0.00034134
10 *1372:CLK 0.000247867
11 *1439:X 0.000222375
12 *191:118 0.000763558
13 *191:105 0.00115644
14 *191:90 0.00072141
15 *191:68 0.00056171
16 *191:62 0.000892127
17 *191:53 0.001138
18 *191:43 0.000944352
19 *191:34 0.000376879
20 *191:12 0.000927618
21 *191:10 0.000560786
22 *1372:CLK *196:26 0
23 *1375:CLK *1251:B2 0.000135547
24 *1375:CLK *264:8 6.48142e-05
25 *1384:CLK *248:8 3.07986e-05
26 *191:10 *196:16 5.50049e-05
27 *191:12 *196:26 0
28 *191:53 *1245:A1 0
29 *191:53 *1289:A1 0
30 *191:68 *264:8 0.000132665
31 *191:105 *196:75 0
32 *191:118 *1268:A1 5.15745e-05
33 *191:118 *196:75 0
34 *191:118 *208:54 0
35 *191:118 *208:99 0
36 *191:118 *266:10 5.41385e-05
37 *1256:A2 *191:118 5.69892e-05
38 *1287:B *191:118 5.23737e-05
39 *1290:S *191:118 0
40 *1369:D *1369:CLK 3.7122e-06
41 *1369:D *191:43 0.000125416
42 *1369:RESET_B *1384:CLK 5.31385e-05
43 *1372:RESET_B *191:12 0
44 *1385:RESET_B *191:62 2.33744e-05
45 *35:10 *191:10 0
46 *36:10 *191:118 0
47 *38:10 *1372:CLK 3.81391e-05
48 *39:8 *1373:CLK 0.000153145
49 *43:10 *191:90 0.000114083
50 *93:46 *191:118 0.000165049
51 *95:42 *191:105 0.000220569
52 *95:42 *191:118 3.34818e-06
53 *100:8 *1375:CLK 1.83564e-05
54 *100:27 *1375:CLK 7.45175e-05
55 *100:42 *1375:CLK 0.000108263
56 *100:42 *191:68 0.000101897
57 *100:42 *191:90 0.000138469
58 *100:50 *191:118 0
59 *115:14 *1375:CLK 0
60 *116:14 *1375:CLK 9.28739e-05
61 *147:40 *1374:CLK 9.1408e-05
62 *150:18 *191:90 2.19436e-05
63 *168:10 *191:118 2.24608e-05
64 *168:25 *191:118 1.37349e-05
65 *173:63 *1372:CLK 0
66 *173:63 *191:12 0
67 *173:71 *191:53 0.000171906
68 *173:118 *191:68 6.35385e-05
69 *173:118 *191:90 0.000209748
70 *182:33 *191:62 4.96717e-05
71 *182:47 *191:90 1.22803e-05
72 *182:57 *1384:CLK 3.18142e-05
73 *182:63 *1384:CLK 1.94682e-05
74 *182:63 *191:10 0
75 *182:63 *191:12 0
76 *182:63 *191:43 3.16784e-05
*RES
1 *1439:X *191:10 41.2314 
2 *191:10 *191:12 6.48357 
3 *191:12 *1372:CLK 42.7229 
4 *191:12 *1373:CLK 43.2821 
5 *191:10 *191:34 15 
6 *191:34 *1369:CLK 24.5743 
7 *191:34 *191:43 5.86214 
8 *191:43 *191:53 40.0464 
9 *191:53 *1385:CLK 23 
10 *191:53 *191:62 24.1971 
11 *191:62 *191:68 3.72857 
12 *191:68 *1375:CLK 43.7793 
13 *191:68 *1374:CLK 41.0036 
14 *191:62 *191:90 20.7793 
15 *191:90 *1377:CLK 25.0507 
16 *191:90 *191:105 22.54 
17 *191:105 *1370:CLK 38 
18 *191:105 *191:118 28.1121 
19 *191:118 *1368:CLK 23 
20 *191:43 *1384:CLK 25.5271 
*END

*D_NET *192 0.00601236
*CONN
*I *1445:A I *D sky130_fd_sc_hd__buf_1
*I *1444:A I *D sky130_fd_sc_hd__clkbuf_2
*I *1462:X O *D sky130_fd_sc_hd__buf_1
*CAP
1 *1445:A 0
2 *1444:A 0
3 *1462:X 9.55678e-05
4 *192:23 0.00130072
5 *192:12 0.00159672
6 *192:8 0.000391567
7 *192:12 *1436:A 5.50049e-05
8 *192:23 *1227:A1 0.000238304
9 *192:23 *1229:A_N 4.96717e-05
10 *192:23 *1229:C 9.91798e-05
11 *192:23 *1303:A1 0.000130667
12 *192:23 *197:14 5.50106e-05
13 *192:23 *197:23 0.000384359
14 *192:23 *197:105 0
15 *192:23 *200:95 0.000265472
16 *192:23 *210:29 8.21412e-05
17 *1303:A0 *192:23 0.000188927
18 *1460:A *192:8 6.07611e-06
19 *46:10 *192:23 5.40337e-05
20 *86:16 *192:23 7.56417e-05
21 *95:42 *192:23 8.32902e-05
22 *98:12 *192:23 9.85586e-06
23 *117:10 *192:23 2.26497e-05
24 *149:24 *192:23 4.44329e-05
25 *149:36 *192:23 0.000229801
26 *159:12 *192:8 0.000166522
27 *170:8 *192:12 0.000273412
28 *170:8 *192:23 1.57571e-05
29 *188:14 *192:12 9.75779e-05
*RES
1 *1462:X *192:8 40.2579 
2 *192:8 *192:12 22.7679 
3 *192:12 *1444:A 23 
4 *192:12 *192:23 43.7929 
5 *192:23 *1445:A 38 
*END

*D_NET *193 0.00674186
*CONN
*I *1387:CLK I *D sky130_fd_sc_hd__dfrtp_1
*I *1379:CLK I *D sky130_fd_sc_hd__dfrtp_1
*I *1386:CLK I *D sky130_fd_sc_hd__dfrtp_1
*I *1371:CLK I *D sky130_fd_sc_hd__dfrtp_1
*I *1383:CLK I *D sky130_fd_sc_hd__dfrtp_1
*I *1382:CLK I *D sky130_fd_sc_hd__dfrtp_1
*I *1440:X O *D sky130_fd_sc_hd__buf_1
*CAP
1 *1387:CLK 3.41077e-05
2 *1379:CLK 0
3 *1386:CLK 0
4 *1371:CLK 4.01155e-05
5 *1383:CLK 0
6 *1382:CLK 0.000630268
7 *1440:X 0
8 *193:68 0.000149106
9 *193:62 0.000390941
10 *193:55 0.000515495
11 *193:43 0.00161121
12 *193:32 0.000971079
13 *193:10 0.00109641
14 *193:4 0.000509116
15 *1382:CLK *196:16 0.000131009
16 *193:10 *196:10 1.7992e-05
17 *193:10 *196:16 0.000153972
18 *193:43 *250:10 1.77877e-05
19 *193:55 *1267:A1 3.56433e-05
20 *193:55 *1307:A 0
21 *193:55 *204:105 0
22 *193:55 *250:10 6.43253e-05
23 *193:55 *261:25 6.05877e-05
24 *193:62 *250:10 5.12328e-05
25 *1306:S *193:55 6.27678e-05
26 *1371:RESET_B *193:55 0
27 *1379:RESET_B *193:68 0
28 *95:65 *193:55 9.96237e-05
29 *146:54 *193:55 0
30 *183:16 *193:55 9.90751e-05
31 *183:61 *193:68 0
*RES
1 *1440:X *193:4 23 
2 *193:4 *193:10 24.0107 
3 *193:10 *1382:CLK 48.8336 
4 *193:10 *1383:CLK 38 
5 *193:4 *193:32 0.621429 
6 *193:32 *1371:CLK 23.8493 
7 *193:32 *193:43 11.9521 
8 *193:43 *193:55 41.4136 
9 *193:55 *1386:CLK 23 
10 *193:43 *193:62 3.95643 
11 *193:62 *193:68 32.61 
12 *193:68 *1379:CLK 23 
13 *193:62 *1387:CLK 23.6214 
*END

*D_NET *194 0.0149079
*CONN
*I *1356:CLK I *D sky130_fd_sc_hd__dfrtp_1
*I *1361:CLK I *D sky130_fd_sc_hd__dfrtp_1
*I *1389:CLK I *D sky130_fd_sc_hd__dfrtp_1
*I *1394:CLK I *D sky130_fd_sc_hd__dfrtp_1
*I *1391:CLK I *D sky130_fd_sc_hd__dfrtp_1
*I *1357:CLK I *D sky130_fd_sc_hd__dfrtp_1
*I *1393:CLK I *D sky130_fd_sc_hd__dfrtp_1
*I *1388:CLK I *D sky130_fd_sc_hd__dfrtp_1
*I *1390:CLK I *D sky130_fd_sc_hd__dfrtp_1
*I *1378:CLK I *D sky130_fd_sc_hd__dfrtp_1
*I *1441:X O *D sky130_fd_sc_hd__clkbuf_2
*CAP
1 *1356:CLK 0.000612014
2 *1361:CLK 6.62075e-05
3 *1389:CLK 0
4 *1394:CLK 0
5 *1391:CLK 0
6 *1357:CLK 9.98707e-05
7 *1393:CLK 0.000382965
8 *1388:CLK 0.000137509
9 *1390:CLK 0
10 *1378:CLK 0
11 *1441:X 5.54462e-05
12 *194:93 9.68451e-05
13 *194:87 0.000539821
14 *194:81 0.00119091
15 *194:49 0.00054066
16 *194:47 0.000917492
17 *194:45 0.000286221
18 *194:43 0.000908212
19 *194:32 0.00062776
20 *194:19 0.0010817
21 *194:10 0.000779369
22 *194:8 5.54462e-05
23 *1356:CLK *204:16 0
24 *1356:CLK *243:20 5.26101e-05
25 *1361:CLK *1451:A 2.64616e-05
26 *1388:CLK *205:25 0.000174823
27 *1393:CLK *1250:A1 8.68081e-05
28 *1393:CLK *206:140 0.000429621
29 *1393:CLK *272:8 0.000109052
30 *194:8 *208:50 8.51329e-05
31 *194:19 *269:25 0.000162062
32 *194:32 *1282:A 0.000161985
33 *194:32 *205:19 9.03784e-05
34 *194:43 *267:10 3.25516e-05
35 *194:45 *212:29 0
36 *194:47 *1451:A 0.000151907
37 *194:47 *206:140 6.16531e-05
38 *194:47 *212:29 0
39 *194:49 *206:140 0.000167452
40 *194:81 *268:10 5.3304e-05
41 *194:87 *1320:A1 0.000310647
42 *1252:D1 *1393:CLK 7.80954e-05
43 *1313:S *1356:CLK 0.000230291
44 *1313:S *194:45 6.25829e-05
45 *1314:A0 *1357:CLK 9.91798e-05
46 *1314:S *1393:CLK 1.14452e-05
47 *1314:S *194:45 0.000130424
48 *1314:S *194:47 0.000261239
49 *1314:S *194:49 0.000155059
50 *1378:RESET_B *194:19 0.000140423
51 *1388:RESET_B *194:43 9.0946e-05
52 *1390:RESET_B *194:19 9.76463e-05
53 *1391:RESET_B *194:81 5.50106e-05
54 *1394:D *194:87 4.96717e-05
55 *30:8 *1356:CLK 0
56 *54:10 *194:32 0.000168821
57 *97:35 *194:93 0.000242666
58 *112:12 *194:32 0.000105154
59 *113:10 *1356:CLK 0
60 *144:29 *1356:CLK 5.42488e-05
61 *148:14 *194:8 0.000171906
62 *151:32 *1388:CLK 0.000272468
63 *151:32 *194:43 0.000181748
64 *169:12 *194:93 0.000240426
65 *169:48 *1356:CLK 0
66 *175:193 *1356:CLK 0
67 *175:193 *194:45 0
68 *176:20 *194:19 0.000902092
69 *176:20 *194:32 0.000200964
70 *182:106 *194:19 7.44354e-05
71 *184:48 *194:81 0.000210461
72 *184:72 *194:87 8.56284e-05
73 *185:25 *1356:CLK 0
*RES
1 *1441:X *194:8 40.2579 
2 *194:8 *194:10 15 
3 *194:10 *1378:CLK 23 
4 *194:10 *194:19 20.6521 
5 *194:19 *1390:CLK 23 
6 *194:19 *194:32 38.8243 
7 *194:32 *1388:CLK 28.3857 
8 *194:32 *194:43 19.4329 
9 *194:43 *194:45 2.61 
10 *194:45 *194:47 3.66643 
11 *194:47 *194:49 2.25786 
12 *194:49 *1393:CLK 47.2593 
13 *194:49 *1357:CLK 40.0507 
14 *194:47 *194:81 26.31 
15 *194:81 *194:87 8.88643 
16 *194:87 *194:93 33.3143 
17 *194:93 *1391:CLK 23 
18 *194:87 *1394:CLK 23 
19 *194:81 *1389:CLK 23 
20 *194:45 *1361:CLK 39.0979 
21 *194:43 *1356:CLK 49.4136 
*END

*D_NET *195 0.0110675
*CONN
*I *1358:CLK I *D sky130_fd_sc_hd__dfrtp_1
*I *1363:CLK I *D sky130_fd_sc_hd__dfrtp_1
*I *1360:CLK I *D sky130_fd_sc_hd__dfrtp_1
*I *1362:CLK I *D sky130_fd_sc_hd__dfrtp_1
*I *1366:CLK I *D sky130_fd_sc_hd__dfrtp_1
*I *1364:CLK I *D sky130_fd_sc_hd__dfrtp_1
*I *1359:CLK I *D sky130_fd_sc_hd__dfrtp_1
*I *1376:CLK I *D sky130_fd_sc_hd__dfrtp_1
*I *1442:X O *D sky130_fd_sc_hd__clkbuf_2
*CAP
1 *1358:CLK 2.5064e-05
2 *1363:CLK 0
3 *1360:CLK 0.000111292
4 *1362:CLK 4.24511e-05
5 *1366:CLK 0.000296029
6 *1364:CLK 0.000336135
7 *1359:CLK 4.01155e-05
8 *1376:CLK 0.000537329
9 *1442:X 0.000219356
10 *195:56 0.000781089
11 *195:54 0.000429316
12 *195:52 0.000538151
13 *195:46 0.00120605
14 *195:29 0.00174112
15 *195:25 0.000834267
16 *195:12 0.000662656
17 *195:10 0.000219356
18 *1366:CLK *217:25 0.000268873
19 *1376:CLK *208:99 3.98818e-05
20 *195:10 *208:99 0
21 *195:10 *255:14 0
22 *195:25 *255:14 5.50049e-05
23 *1276:A1 *195:46 0
24 *1280:A0 *1364:CLK 0
25 *1280:A0 *1366:CLK 2.64616e-05
26 *1280:S *1366:CLK 0.000359326
27 *1281:S *1360:CLK 5.3304e-05
28 *1281:S *195:54 0.000151907
29 *1298:S *195:10 0.00014196
30 *1358:RESET_B *195:29 9.7551e-05
31 *1358:RESET_B *195:46 9.1889e-05
32 *1359:RESET_B *195:46 1.12709e-05
33 *1376:D *1376:CLK 0.000272458
34 *1376:RESET_B *1358:CLK 3.22879e-05
35 *1376:RESET_B *195:25 6.79362e-05
36 *1376:RESET_B *195:29 8.40137e-05
37 *1474:A *195:46 0
38 *29:10 *195:52 3.21327e-05
39 *42:8 *195:10 0.000113153
40 *88:72 *1364:CLK 0.000140259
41 *94:20 *195:54 0
42 *94:20 *195:56 0
43 *112:12 *1364:CLK 6.70914e-05
44 *112:12 *195:56 2.76611e-06
45 *144:40 *195:54 0.00025307
46 *144:40 *195:56 0.000188916
47 *145:52 *1364:CLK 0.000234313
48 *148:40 *195:10 5.50049e-05
49 *169:33 *1364:CLK 4.05745e-05
50 *169:48 *1364:CLK 7.1915e-05
51 *185:52 *195:52 0
52 *185:52 *195:54 0
53 *185:77 *195:46 5.23752e-05
54 *185:77 *195:52 0
55 *186:72 *1366:CLK 4.19743e-05
*RES
1 *1442:X *195:10 41.9564 
2 *195:10 *195:12 15 
3 *195:12 *1376:CLK 31.6379 
4 *195:12 *195:25 3.00357 
5 *195:25 *195:29 10.1707 
6 *195:29 *1359:CLK 23.8493 
7 *195:29 *195:46 30.7843 
8 *195:46 *195:52 3.72857 
9 *195:52 *195:54 5.77929 
10 *195:54 *195:56 2.96214 
11 *195:56 *1364:CLK 45.8714 
12 *195:56 *1366:CLK 45.7679 
13 *195:54 *1362:CLK 38.6214 
14 *195:52 *1360:CLK 40.0507 
15 *195:46 *1363:CLK 38 
16 *195:25 *1358:CLK 24.1186 
*END

*D_NET *196 0.0241972
*CONN
*I *1438:A I *D sky130_fd_sc_hd__dlymetal6s2s_1
*I *1437:A I *D sky130_fd_sc_hd__clkbuf_2
*I *1441:A I *D sky130_fd_sc_hd__clkbuf_2
*I *1442:A I *D sky130_fd_sc_hd__clkbuf_2
*I *1440:A I *D sky130_fd_sc_hd__buf_1
*I *1439:A I *D sky130_fd_sc_hd__clkbuf_2
*I *1436:A I *D sky130_fd_sc_hd__clkbuf_2
*I *1435:A I *D sky130_fd_sc_hd__clkbuf_2
*I *1443:X O *D sky130_fd_sc_hd__buf_2
*CAP
1 *1438:A 0
2 *1437:A 0
3 *1441:A 0
4 *1442:A 0
5 *1440:A 0
6 *1439:A 0
7 *1436:A 3.27378e-05
8 *1435:A 0
9 *1443:X 0
10 *196:115 0.000954607
11 *196:100 0.000877487
12 *196:90 0.00220771
13 *196:77 0.000434664
14 *196:75 0.000963403
15 *196:62 0.00272277
16 *196:32 0.00130178
17 *196:26 0.00253293
18 *196:16 0.00196668
19 *196:10 0.00116385
20 *196:4 0.002214
21 *196:10 *203:10 0.000177909
22 *196:16 *1305:A1 0
23 *196:16 *261:25 0
24 *196:32 *209:25 8.03907e-05
25 *196:75 *208:99 0
26 *196:90 *208:24 8.72173e-05
27 *196:90 *208:31 0.000460568
28 *196:90 *208:50 0.000188926
29 *196:100 *197:105 0.000110922
30 *196:100 *197:120 0.000297788
31 *196:100 *208:24 0.000105798
32 *196:100 *209:106 0.000447942
33 *196:115 *202:42 0
34 *1290:S *196:75 6.43357e-05
35 *1299:S *196:77 5.50049e-05
36 *1300:S *196:77 5.3304e-05
37 *1300:S *196:90 0.000168687
38 *1372:CLK *196:26 0
39 *1381:RESET_B *196:32 0
40 *1382:CLK *196:16 0.000131009
41 *1397:RESET_B *196:32 0
42 *36:10 *196:75 0
43 *37:10 *196:16 0
44 *47:10 *196:32 0.000141879
45 *48:10 *196:16 5.83407e-05
46 *48:10 *196:26 7.59964e-05
47 *63:10 *196:32 4.58924e-05
48 *83:10 *196:32 0
49 *84:10 *196:32 0.000114537
50 *92:18 *196:100 0.000137651
51 *92:18 *196:115 0.000565539
52 *92:54 *196:75 0.000212621
53 *97:22 *196:115 0.000120405
54 *97:35 *196:115 8.62783e-05
55 *101:10 *196:100 8.62783e-05
56 *106:20 *196:100 5.72749e-05
57 *137:10 *196:115 5.3304e-05
58 *146:44 *196:75 1.34354e-05
59 *148:14 *196:75 0.000432021
60 *148:32 *196:75 0.000264334
61 *148:40 *196:62 0.00018332
62 *148:40 *196:75 2.93747e-05
63 *159:12 *196:26 0
64 *159:12 *196:32 0
65 *160:25 *196:100 0.000358694
66 *166:8 *196:115 0.000160206
67 *167:10 *196:100 1.69668e-05
68 *167:31 *196:90 6.16531e-05
69 *167:31 *196:100 3.95159e-06
70 *169:12 *196:115 0.00037402
71 *176:28 *196:90 5.94125e-05
72 *178:59 *196:32 0
73 *182:92 *196:75 0
74 *186:91 *196:90 0.000297262
75 *186:97 *196:100 9.84851e-05
76 *187:12 *196:32 0
77 *187:23 *196:32 3.7122e-06
78 *188:16 *196:32 0
79 *188:20 *196:32 0
80 *188:30 *196:32 0
81 *191:10 *196:16 5.50049e-05
82 *191:12 *196:26 0
83 *191:105 *196:75 0
84 *191:118 *196:75 0
85 *192:12 *1436:A 5.50049e-05
86 *193:10 *196:10 1.7992e-05
87 *193:10 *196:16 0.000153972
*RES
1 *1443:X *196:4 23 
2 *196:4 *196:10 21.3386 
3 *196:10 *196:16 32.5864 
4 *196:16 *196:26 37.5993 
5 *196:26 *196:32 41.3693 
6 *196:32 *1435:A 23 
7 *196:26 *1436:A 38.6214 
8 *196:16 *1439:A 23 
9 *196:10 *1440:A 38 
10 *196:4 *196:62 24.4636 
11 *196:62 *1442:A 23 
12 *196:62 *196:75 49.7821 
13 *196:75 *196:77 1.09786 
14 *196:77 *1441:A 23 
15 *196:77 *196:90 41.7036 
16 *196:90 *196:100 49.3679 
17 *196:100 *1437:A 23 
18 *196:90 *196:115 46.7993 
19 *196:115 *1438:A 23 
*END

*D_NET *197 0.0158035
*CONN
*I *1229:B_N I *D sky130_fd_sc_hd__and4bb_1
*I *1224:B_N I *D sky130_fd_sc_hd__and4bb_2
*I *1217:A_N I *D sky130_fd_sc_hd__and4b_2
*I *1218:B I *D sky130_fd_sc_hd__nor4b_1
*I *1211:C I *D sky130_fd_sc_hd__and4_1
*I *1239:B I *D sky130_fd_sc_hd__and4b_2
*I *1222:B I *D sky130_fd_sc_hd__nor4b_1
*I *1228:A_N I *D sky130_fd_sc_hd__and4bb_2
*I *1236:C I *D sky130_fd_sc_hd__and4bb_2
*I *1238:B I *D sky130_fd_sc_hd__and4b_2
*I *1444:X O *D sky130_fd_sc_hd__clkbuf_2
*CAP
1 *1229:B_N 0
2 *1224:B_N 6.63467e-05
3 *1217:A_N 0
4 *1218:B 2.0995e-05
5 *1211:C 8.49042e-05
6 *1239:B 0
7 *1222:B 0
8 *1228:A_N 2.30556e-05
9 *1236:C 0.000413353
10 *1238:B 0
11 *1444:X 0
12 *197:139 0.000319819
13 *197:120 0.000586343
14 *197:105 0.00089793
15 *197:95 0.000823882
16 *197:86 0.000239299
17 *197:78 0.000585753
18 *197:74 0.000458758
19 *197:61 0.000500364
20 *197:49 0.00107019
21 *197:40 0.000692427
22 *197:23 0.000950546
23 *197:14 0.000487824
24 *197:4 0.000623134
25 *1211:C *199:34 5.3304e-05
26 *1211:C *199:49 4.08664e-05
27 *1218:B *1232:B 0
28 *1224:B_N *210:29 9.168e-05
29 *1236:C *214:41 0
30 *1236:C *260:35 4.35681e-06
31 *197:14 *1238:C 0.000397596
32 *197:14 *209:25 6.17437e-06
33 *197:14 *260:8 4.06039e-05
34 *197:40 *1230:A1 5.17536e-05
35 *197:40 *251:12 2.25203e-05
36 *197:49 *1230:A1 7.45391e-05
37 *197:49 *200:50 0.000136743
38 *197:49 *200:65 4.6595e-05
39 *197:61 *1222:A 1.59208e-05
40 *197:61 *1222:D_N 0
41 *197:61 *200:65 0.000215233
42 *197:61 *204:113 4.15283e-06
43 *197:61 *209:37 1.86973e-05
44 *197:74 *1230:A1 0.000126674
45 *197:74 *200:65 2.93845e-05
46 *197:74 *263:14 7.80291e-06
47 *197:78 *1303:A1 0
48 *197:78 *200:87 0.00020892
49 *197:86 *1247:A1 0.000119486
50 *197:86 *201:82 3.82956e-05
51 *197:86 *201:88 6.07611e-06
52 *197:86 *209:73 0
53 *197:95 *1247:A1 6.22712e-05
54 *197:105 *1227:A1 0
55 *197:105 *201:88 0.000505074
56 *197:120 *1218:A 2.93747e-05
57 *197:120 *200:122 1.03955e-05
58 *197:120 *209:126 9.41704e-05
59 *197:139 *1218:A 1.56762e-05
60 *197:139 *1218:C 1.32314e-05
61 *197:139 *201:122 0
62 *197:139 *209:106 0.000123944
63 *1269:A2 *197:139 0.000108672
64 *1381:RESET_B *197:14 9.63758e-05
65 *1448:A *1236:C 0
66 *1448:A *197:40 0
67 *46:10 *1236:C 2.86209e-05
68 *47:10 *197:14 0.000147134
69 *86:16 *1224:B_N 3.47879e-05
70 *86:16 *197:105 4.6318e-06
71 *89:12 *197:139 2.02517e-05
72 *93:12 *197:61 2.26406e-05
73 *95:18 *197:95 9.41704e-05
74 *98:18 *197:61 0
75 *98:18 *197:74 0.000105072
76 *98:18 *197:78 4.71078e-05
77 *99:33 *197:61 3.83778e-05
78 *106:12 *197:105 0.000566278
79 *106:20 *197:105 8.4047e-05
80 *106:20 *197:120 0.000307922
81 *110:10 *197:105 1.37246e-05
82 *115:14 *197:74 0.000218962
83 *115:14 *197:78 0.000310163
84 *116:14 *1224:B_N 0.000154147
85 *116:14 *197:105 0.00021356
86 *117:10 *197:105 6.12496e-06
87 *149:24 *197:61 1.27328e-05
88 *149:36 *1236:C 0
89 *167:10 *197:120 9.5877e-05
90 *170:8 *197:14 2.93845e-05
91 *170:8 *197:23 0.000123924
92 *170:29 *197:40 0
93 *173:63 *1236:C 0
94 *173:63 *197:14 0
95 *186:97 *197:139 0.000357
96 *188:80 *1236:C 0.000257278
97 *192:23 *197:14 5.50106e-05
98 *192:23 *197:23 0.000384359
99 *192:23 *197:105 0
100 *196:100 *197:105 0.000110922
101 *196:100 *197:120 0.000297788
*RES
1 *1444:X *197:4 23 
2 *197:4 *197:14 41.31 
3 *197:14 *1238:B 23 
4 *197:4 *197:23 19.4329 
5 *197:23 *1236:C 44.8357 
6 *197:23 *197:40 21.8357 
7 *197:40 *1228:A_N 23.4971 
8 *197:40 *197:49 4.90929 
9 *197:49 *197:61 35.6489 
10 *197:61 *1222:B 38 
11 *197:49 *197:74 22.395 
12 *197:74 *197:78 19.3707 
13 *197:78 *197:86 33.7286 
14 *197:86 *1239:B 23 
15 *197:78 *197:95 17.5271 
16 *197:95 *197:105 45.0179 
17 *197:105 *1211:C 39.0979 
18 *197:105 *197:120 21.4214 
19 *197:120 *1218:B 23.4971 
20 *197:120 *197:139 38.3686 
21 *197:139 *1217:A_N 23 
22 *197:95 *1224:B_N 40.2579 
23 *197:74 *1229:B_N 38 
*END

*D_NET *198 0.0083264
*CONN
*I *1233:C I *D sky130_fd_sc_hd__and4bb_2
*I *1232:A I *D sky130_fd_sc_hd__and3_2
*I *1226:C I *D sky130_fd_sc_hd__or4_2
*I *1221:A_N I *D sky130_fd_sc_hd__and3b_2
*I *1231:C I *D sky130_fd_sc_hd__and3b_2
*I *1225:C I *D sky130_fd_sc_hd__nor4_1
*I *1235:C I *D sky130_fd_sc_hd__and4b_2
*I *1445:X O *D sky130_fd_sc_hd__buf_1
*CAP
1 *1233:C 0
2 *1232:A 0
3 *1226:C 0.000189591
4 *1221:A_N 0.00023259
5 *1231:C 0
6 *1225:C 0.000644064
7 *1235:C 0
8 *1445:X 0.000153867
9 *198:49 0.000583801
10 *198:45 0.000207516
11 *198:38 0.000148306
12 *198:23 0.000846752
13 *198:19 0.000355051
14 *198:12 0.000408641
15 *1221:A_N *1220:A 4.44329e-05
16 *1221:A_N *201:122 0.000224329
17 *1225:C *199:53 1.40958e-05
18 *1225:C *200:122 0.000601934
19 *1225:C *201:122 2.32101e-05
20 *1226:C *1226:D 0.000139352
21 *1226:C *201:128 1.78655e-05
22 *1226:C *209:119 0.000218952
23 *198:12 *199:34 5.3304e-05
24 *198:12 *202:16 5.50049e-05
25 *198:19 *1211:A 9.84794e-05
26 *198:19 *1233:D 5.67058e-05
27 *198:19 *199:34 0.000459974
28 *198:19 *199:49 0.000193757
29 *198:19 *202:16 0.00017761
30 *198:19 *202:25 0.000673049
31 *198:23 *199:49 0.000156945
32 *198:23 *200:122 6.97747e-05
33 *198:38 *1232:B 3.04308e-05
34 *198:38 *199:49 9.03784e-05
35 *198:38 *199:53 5.3304e-05
36 *198:38 *199:80 2.46345e-05
37 *198:38 *200:122 1.12487e-05
38 *198:38 *201:105 3.95159e-06
39 *198:38 *201:122 6.16531e-05
40 *198:45 *1232:B 7.04448e-05
41 *198:49 *201:128 4.6318e-06
42 *198:49 *209:119 1.14452e-05
43 *198:49 *210:65 1.84329e-05
44 *1221:C *1221:A_N 5.73018e-05
45 *1247:A2 *198:12 0
46 *1469:A *1225:C 1.22822e-05
47 *86:16 *198:12 5.34915e-05
48 *89:12 *198:38 0.000114604
49 *89:12 *198:45 0.000162607
50 *91:14 *1221:A_N 5.3304e-05
51 *91:14 *198:49 2.05503e-05
52 *91:48 *1221:A_N 1.24376e-05
53 *91:48 *198:49 3.83778e-05
54 *92:10 *1226:C 0.000166513
55 *95:33 *198:12 7.53384e-06
56 *96:8 *1225:C 9.5877e-05
57 *102:66 *198:49 3.22336e-05
58 *137:10 *1221:A_N 6.97734e-05
*RES
1 *1445:X *198:12 26.6664 
2 *198:12 *1235:C 23 
3 *198:12 *198:19 9.67357 
4 *198:19 *198:23 17.2579 
5 *198:23 *1225:C 47.1971 
6 *198:23 *198:38 17.8896 
7 *198:38 *1231:C 23 
8 *198:38 *198:45 1.8125 
9 *198:45 *198:49 17.2579 
10 *198:49 *1221:A_N 42.93 
11 *198:49 *1226:C 43.0129 
12 *198:45 *1232:A 23 
13 *198:19 *1233:C 23 
*END

*D_NET *199 0.00941567
*CONN
*I *1225:D I *D sky130_fd_sc_hd__nor4_1
*I *1226:D I *D sky130_fd_sc_hd__or4_2
*I *1217:B I *D sky130_fd_sc_hd__and4b_2
*I *1221:B I *D sky130_fd_sc_hd__and3b_2
*I *1232:B I *D sky130_fd_sc_hd__and3_2
*I *1231:A_N I *D sky130_fd_sc_hd__and3b_2
*I *1218:C I *D sky130_fd_sc_hd__nor4b_1
*I *1211:D I *D sky130_fd_sc_hd__and4_1
*I *1235:D I *D sky130_fd_sc_hd__and4b_2
*I *1229:C I *D sky130_fd_sc_hd__and4bb_1
*I *1446:X O *D sky130_fd_sc_hd__clkbuf_2
*CAP
1 *1225:D 3.28208e-05
2 *1226:D 0.000126376
3 *1217:B 0
4 *1221:B 0
5 *1232:B 0.000249457
6 *1231:A_N 0
7 *1218:C 4.63492e-05
8 *1211:D 0
9 *1235:D 0
10 *1229:C 0.000193706
11 *1446:X 0
12 *199:93 0.000274261
13 *199:80 0.000318379
14 *199:53 0.000109411
15 *199:51 0.000312519
16 *199:49 0.000706206
17 *199:34 0.000834036
18 *199:27 0.000652496
19 *199:19 0.000710766
20 *199:4 0.00051748
21 *1218:C *1218:A 9.84794e-05
22 *1218:C *201:122 5.50106e-05
23 *1225:D *209:98 9.5877e-05
24 *1226:D *209:106 9.77405e-05
25 *1226:D *209:119 8.43466e-05
26 *1229:C *200:95 1.5769e-05
27 *1229:C *200:114 3.52383e-05
28 *1229:C *210:29 5.90075e-05
29 *199:19 *200:114 0.00018824
30 *199:19 *202:8 4.07715e-05
31 *199:19 *208:24 1.24376e-05
32 *199:19 *234:25 0.000161898
33 *199:27 *1227:A1 0
34 *199:27 *1235:B 0.000142126
35 *199:27 *200:114 2.26497e-05
36 *199:27 *202:10 1.93489e-05
37 *199:27 *202:16 2.49836e-05
38 *199:27 *210:33 0.000107218
39 *199:27 *234:25 0.000362773
40 *199:34 *1235:B 5.3304e-05
41 *199:49 *1211:A 9.84794e-05
42 *199:49 *1233:D 9.84794e-05
43 *199:49 *200:122 9.20311e-06
44 *199:49 *202:25 0
45 *199:53 *201:122 4.17736e-05
46 *199:80 *201:122 5.92991e-05
47 *199:93 *209:106 9.67842e-05
48 *1211:C *199:34 5.3304e-05
49 *1211:C *199:49 4.08664e-05
50 *1218:B *1232:B 0
51 *1221:C *199:80 2.05503e-05
52 *1225:C *199:53 1.40958e-05
53 *1226:C *1226:D 0.000139352
54 *1231:B *199:49 8.94394e-05
55 *1231:B *199:80 0.000118481
56 *1269:A2 *199:80 0
57 *1269:A2 *199:93 0
58 *1273:B1 *199:49 6.1002e-05
59 *1469:A *1225:D 9.5877e-05
60 *89:12 *1218:C 3.22879e-05
61 *89:12 *1232:B 2.66101e-05
62 *89:12 *199:53 4.34876e-05
63 *102:8 *1232:B 5.56356e-05
64 *102:10 *199:49 3.11878e-05
65 *102:66 *199:80 6.20358e-05
66 *102:66 *199:93 8.51329e-05
67 *106:8 *199:27 3.52397e-05
68 *160:25 *199:19 0
69 *192:23 *1229:C 9.91798e-05
70 *197:139 *1218:C 1.32314e-05
71 *198:12 *199:34 5.3304e-05
72 *198:19 *199:34 0.000459974
73 *198:19 *199:49 0.000193757
74 *198:23 *199:49 0.000156945
75 *198:38 *1232:B 3.04308e-05
76 *198:38 *199:49 9.03784e-05
77 *198:38 *199:53 5.3304e-05
78 *198:38 *199:80 2.46345e-05
79 *198:45 *1232:B 7.04448e-05
*RES
1 *1446:X *199:4 23 
2 *199:4 *1229:C 26.9771 
3 *199:4 *199:19 20.4893 
4 *199:19 *199:27 22.7264 
5 *199:27 *1235:D 23 
6 *199:27 *199:34 5.86214 
7 *199:34 *1211:D 23 
8 *199:34 *199:49 24.57 
9 *199:49 *199:51 15 
10 *199:51 *199:53 1.57429 
11 *199:53 *1218:C 24.5743 
12 *199:53 *1231:A_N 23 
13 *199:51 *1232:B 27.9714 
14 *199:49 *199:80 3.66643 
15 *199:80 *1221:B 38 
16 *199:80 *199:93 18.3557 
17 *199:93 *1217:B 23 
18 *199:93 *1226:D 26.0036 
19 *199:19 *1225:D 39.0979 
*END

*D_NET *200 0.0142479
*CONN
*I *1224:C I *D sky130_fd_sc_hd__and4bb_2
*I *1233:B_N I *D sky130_fd_sc_hd__and4bb_2
*I *1446:A I *D sky130_fd_sc_hd__clkbuf_2
*I *1239:A_N I *D sky130_fd_sc_hd__and4b_2
*I *1222:C I *D sky130_fd_sc_hd__nor4b_1
*I *1228:B_N I *D sky130_fd_sc_hd__and4bb_2
*I *1236:B_N I *D sky130_fd_sc_hd__and4bb_2
*I *1238:C I *D sky130_fd_sc_hd__and4b_2
*I *1447:X O *D sky130_fd_sc_hd__clkbuf_2
*CAP
1 *1224:C 0
2 *1233:B_N 0
3 *1446:A 0
4 *1239:A_N 0
5 *1222:C 0
6 *1228:B_N 0
7 *1236:B_N 0
8 *1238:C 0.000257401
9 *1447:X 0
10 *200:122 0.000331302
11 *200:114 0.000740339
12 *200:95 0.000600263
13 *200:87 0.000646051
14 *200:72 0.000563022
15 *200:65 0.000252056
16 *200:50 0.000647655
17 *200:40 0.000693519
18 *200:18 0.000942782
19 *200:4 0.000875104
20 *1238:C *1304:A1 0.00010018
21 *1238:C *209:159 5.50106e-05
22 *1238:C *260:35 0.000210461
23 *200:18 *209:159 2.24608e-05
24 *200:18 *214:41 4.70939e-05
25 *200:40 *1247:A1 0.000108383
26 *200:40 *260:35 2.34279e-05
27 *200:50 *1230:A1 6.24251e-05
28 *200:50 *201:50 0.000456486
29 *200:50 *209:73 0
30 *200:65 *1230:A1 0.000139346
31 *200:65 *204:113 3.70094e-05
32 *200:65 *263:14 0
33 *200:72 *1247:A1 0.000148698
34 *200:72 *209:73 9.84851e-05
35 *200:87 *1227:B2 0.000180218
36 *200:87 *1247:A1 0.000173442
37 *200:87 *1303:A1 0
38 *200:87 *201:82 0.000106619
39 *200:87 *201:88 1.83667e-05
40 *200:87 *209:73 0.000173898
41 *200:87 *224:20 7.76364e-06
42 *200:87 *259:8 0
43 *200:95 *1229:D 0.000182832
44 *200:114 *1229:D 0.000213069
45 *200:114 *202:8 3.47781e-05
46 *200:114 *202:10 0.000124169
47 *200:114 *234:25 3.27225e-05
48 *200:122 *1218:A 0.000182826
49 *200:122 *201:92 1.01436e-05
50 *200:122 *201:105 0.000206214
51 *200:122 *201:122 4.08664e-05
52 *200:122 *209:98 8.47805e-05
53 *200:122 *209:126 8.27026e-05
54 *1225:C *200:122 0.000601934
55 *1229:C *200:95 1.5769e-05
56 *1229:C *200:114 3.52383e-05
57 *1303:A0 *200:50 0.000420022
58 *1304:A0 *1238:C 5.50049e-05
59 *1456:A *200:65 0.0002246
60 *1469:A *200:122 6.17437e-06
61 *93:12 *200:65 5.41385e-05
62 *99:33 *200:65 1.5769e-05
63 *109:10 *1238:C 0.000123924
64 *115:14 *200:87 3.97399e-05
65 *115:14 *200:95 5.06189e-05
66 *116:14 *200:95 0.000108293
67 *117:18 *200:114 4.89974e-05
68 *147:8 *200:65 1.47563e-05
69 *149:24 *200:50 0.000191276
70 *160:25 *200:114 2.06041e-05
71 *173:63 *1238:C 0.000183733
72 *181:22 *200:18 0.000490891
73 *188:80 *200:18 2.05503e-05
74 *192:23 *200:95 0.000265472
75 *197:14 *1238:C 0.000397596
76 *197:49 *200:50 0.000136743
77 *197:49 *200:65 4.6595e-05
78 *197:61 *200:65 0.000215233
79 *197:74 *200:65 2.93845e-05
80 *197:78 *200:87 0.00020892
81 *197:120 *200:122 1.03955e-05
82 *198:23 *200:122 6.97747e-05
83 *198:38 *200:122 1.12487e-05
84 *199:19 *200:114 0.00018824
85 *199:27 *200:114 2.26497e-05
86 *199:49 *200:122 9.20311e-06
*RES
1 *1447:X *200:4 23 
2 *200:4 *200:18 47.9948 
3 *200:18 *1238:C 31.8864 
4 *200:18 *1236:B_N 23 
5 *200:4 *200:40 3.16929 
6 *200:40 *200:50 41.02 
7 *200:50 *1228:B_N 23 
8 *200:50 *200:65 37.0636 
9 *200:65 *1222:C 23 
10 *200:40 *200:72 3.00357 
11 *200:72 *1239:A_N 23 
12 *200:72 *200:87 39.9014 
13 *200:87 *200:95 35.0336 
14 *200:95 *1446:A 23 
15 *200:95 *200:114 37.5102 
16 *200:114 *200:122 39.7771 
17 *200:122 *1233:B_N 38 
18 *200:87 *1224:C 23 
*END

*D_NET *201 0.0143056
*CONN
*I *1224:A_N I *D sky130_fd_sc_hd__and4bb_2
*I *1239:D I *D sky130_fd_sc_hd__and4b_2
*I *1220:A I *D sky130_fd_sc_hd__nor2_1
*I *1217:C I *D sky130_fd_sc_hd__and4b_2
*I *1218:A I *D sky130_fd_sc_hd__nor4b_1
*I *1211:A I *D sky130_fd_sc_hd__and4_1
*I *1222:D_N I *D sky130_fd_sc_hd__nor4b_1
*I *1228:C I *D sky130_fd_sc_hd__and4bb_2
*I *1236:A_N I *D sky130_fd_sc_hd__and4bb_2
*I *1238:D I *D sky130_fd_sc_hd__and4b_2
*I *1448:X O *D sky130_fd_sc_hd__clkbuf_2
*CAP
1 *1224:A_N 0
2 *1239:D 0
3 *1220:A 1.08325e-05
4 *1217:C 0
5 *1218:A 4.78248e-05
6 *1211:A 2.01797e-05
7 *1222:D_N 0.000192046
8 *1228:C 0
9 *1236:A_N 0
10 *1238:D 0
11 *1448:X 0
12 *201:128 9.09223e-05
13 *201:122 0.00033299
14 *201:105 0.000432212
15 *201:92 0.00030273
16 *201:88 0.000950262
17 *201:82 0.000973577
18 *201:78 0.000392288
19 *201:50 0.000364286
20 *201:46 0.000644192
21 *201:37 0.000311121
22 *201:25 0.00105045
23 *201:18 0.000525715
24 *201:4 0.00103266
25 *1222:D_N *1222:A 6.38659e-05
26 *1222:D_N *209:37 1.14452e-05
27 *201:18 *209:25 0.000633231
28 *201:18 *209:33 5.90675e-06
29 *201:25 *209:25 3.88766e-05
30 *201:25 *209:33 0.000362539
31 *201:37 *214:41 8.29264e-05
32 *201:37 *260:35 1.14762e-05
33 *201:46 *209:33 0.000136507
34 *201:50 *209:37 0.000456496
35 *201:50 *209:73 6.7177e-06
36 *201:78 *209:33 5.50106e-05
37 *201:78 *209:65 8.52481e-05
38 *201:78 *209:82 0.000168821
39 *201:78 *209:98 3.91386e-05
40 *201:82 *209:73 0
41 *201:82 *259:8 0
42 *201:88 *209:73 0
43 *201:88 *224:20 0
44 *1218:C *1218:A 9.84794e-05
45 *1218:C *201:122 5.50106e-05
46 *1221:A_N *1220:A 4.44329e-05
47 *1221:A_N *201:122 0.000224329
48 *1221:C *201:122 2.47015e-05
49 *1225:C *201:122 2.32101e-05
50 *1226:C *201:128 1.78655e-05
51 *1269:A2 *201:122 6.07611e-06
52 *1273:B1 *201:92 0
53 *1381:RESET_B *201:18 0
54 *86:74 *201:88 0.000609769
55 *92:10 *201:128 0.000166513
56 *93:12 *1222:D_N 2.94268e-05
57 *102:66 *201:128 0.000215782
58 *106:12 *201:88 1.76557e-05
59 *106:35 *201:88 7.92721e-05
60 *106:35 *201:92 9.03784e-05
61 *116:6 *201:88 0.00011451
62 *137:10 *1220:A 5.56356e-05
63 *137:10 *201:122 0.000221997
64 *149:24 *1222:D_N 0.000222541
65 *149:24 *201:50 1.35751e-05
66 *181:22 *201:37 7.17251e-05
67 *186:97 *201:92 2.68708e-05
68 *186:97 *201:105 5.90667e-05
69 *186:97 *201:122 0
70 *197:61 *1222:D_N 0
71 *197:86 *201:82 3.82956e-05
72 *197:86 *201:88 6.07611e-06
73 *197:105 *201:88 0.000505074
74 *197:120 *1218:A 2.93747e-05
75 *197:139 *1218:A 1.56762e-05
76 *197:139 *201:122 0
77 *198:19 *1211:A 9.84794e-05
78 *198:38 *201:105 3.95159e-06
79 *198:38 *201:122 6.16531e-05
80 *198:49 *201:128 4.6318e-06
81 *199:49 *1211:A 9.84794e-05
82 *199:53 *201:122 4.17736e-05
83 *199:80 *201:122 5.92991e-05
84 *200:50 *201:50 0.000456486
85 *200:87 *201:82 0.000106619
86 *200:87 *201:88 1.83667e-05
87 *200:122 *1218:A 0.000182826
88 *200:122 *201:92 1.01436e-05
89 *200:122 *201:105 0.000206214
90 *200:122 *201:122 4.08664e-05
*RES
1 *1448:X *201:4 23 
2 *201:4 *201:18 40.0879 
3 *201:18 *1238:D 23 
4 *201:4 *201:25 6.815 
5 *201:25 *201:37 35.0595 
6 *201:37 *1236:A_N 23 
7 *201:25 *201:46 3.50071 
8 *201:46 *201:50 21.4836 
9 *201:50 *1228:C 38 
10 *201:50 *1222:D_N 42.6193 
11 *201:46 *201:78 5.40643 
12 *201:78 *201:82 17.9621 
13 *201:82 *201:88 35.2586 
14 *201:88 *201:92 17.61 
15 *201:92 *1211:A 39.0979 
16 *201:92 *201:105 18.3143 
17 *201:105 *1218:A 25.0507 
18 *201:105 *201:122 36.5871 
19 *201:122 *201:128 32.9621 
20 *201:128 *1217:C 23 
21 *201:122 *1220:A 23.6214 
22 *201:82 *1239:D 38 
23 *201:78 *1224:A_N 23 
*END

*D_NET *202 0.00760591
*CONN
*I *1229:D I *D sky130_fd_sc_hd__and4bb_1
*I *1225:A I *D sky130_fd_sc_hd__nor4_1
*I *1226:A I *D sky130_fd_sc_hd__or4_2
*I *1233:D I *D sky130_fd_sc_hd__and4bb_2
*I *1235:A_N I *D sky130_fd_sc_hd__and4b_2
*I *1449:X O *D sky130_fd_sc_hd__buf_1
*CAP
1 *1229:D 0.000287849
2 *1225:A 0
3 *1226:A 0
4 *1233:D 1.88194e-05
5 *1235:A_N 0
6 *1449:X 0.000260408
7 *202:42 0.000591944
8 *202:25 0.000851344
9 *202:16 0.000471375
10 *202:10 0.000329673
11 *202:8 0.000647135
12 *202:10 *209:98 4.17929e-05
13 *202:16 *1235:B 3.39192e-05
14 *202:16 *209:98 1.83667e-05
15 *202:16 *210:33 9.88303e-05
16 *202:16 *210:52 0.00017761
17 *202:25 *210:52 0.000765557
18 *202:42 *209:119 0
19 *202:42 *210:52 0.000196837
20 *202:42 *210:65 0.000342012
21 *1296:S *202:8 0
22 *41:8 *202:8 0.000138718
23 *86:16 *202:16 2.02872e-05
24 *95:33 *202:16 0
25 *95:42 *202:8 0
26 *95:42 *202:10 0
27 *97:22 *202:42 2.22079e-05
28 *102:29 *202:42 1.79538e-05
29 *103:8 *202:42 0.000189947
30 *104:8 *202:42 0.000316532
31 *169:12 *202:42 0
32 *182:10 *202:8 3.55887e-05
33 *182:19 *202:8 3.04021e-05
34 *190:10 *202:42 0
35 *190:16 *202:42 0
36 *196:115 *202:42 0
37 *198:12 *202:16 5.50049e-05
38 *198:19 *1233:D 5.67058e-05
39 *198:19 *202:16 0.00017761
40 *198:19 *202:25 0.000673049
41 *199:19 *202:8 4.07715e-05
42 *199:27 *202:10 1.93489e-05
43 *199:27 *202:16 2.49836e-05
44 *199:49 *1233:D 9.84794e-05
45 *199:49 *202:25 0
46 *200:95 *1229:D 0.000182832
47 *200:114 *1229:D 0.000213069
48 *200:114 *202:8 3.47781e-05
49 *200:114 *202:10 0.000124169
*RES
1 *1449:X *202:8 43.7793 
2 *202:8 *202:10 2.25786 
3 *202:10 *202:16 20.1371 
4 *202:16 *1235:A_N 23 
5 *202:16 *202:25 9.09357 
6 *202:25 *1233:D 24.0979 
7 *202:25 *202:42 44.8314 
8 *202:42 *1226:A 23 
9 *202:10 *1225:A 38 
10 *202:8 *1229:D 42.4329 
*END

*D_NET *203 0.0016357
*CONN
*I *1443:A I *D sky130_fd_sc_hd__buf_2
*I *1463:X O *D sky130_fd_sc_hd__clkbuf_1
*CAP
1 *1443:A 0
2 *1463:X 0.000728897
3 *203:10 0.000728897
4 *196:10 *203:10 0.000177909
*RES
1 *1463:X *203:10 35.5736 
2 *203:10 *1443:A 23 
*END

*D_NET *204 0.0230672
*CONN
*I *1255:A1 I *D sky130_fd_sc_hd__a22o_1
*I *1254:B1_N I *D sky130_fd_sc_hd__o21ba_1
*I *1244:A1 I *D sky130_fd_sc_hd__a22o_1
*I *1287:A I *D sky130_fd_sc_hd__nand2_2
*I *1307:A I *D sky130_fd_sc_hd__nand2_1
*I *1302:A I *D sky130_fd_sc_hd__nand2_2
*I *1292:A I *D sky130_fd_sc_hd__nand2_2
*I *1297:A I *D sky130_fd_sc_hd__nand2_2
*I *1265:B1_N I *D sky130_fd_sc_hd__o21ba_1
*I *1243:B1_N I *D sky130_fd_sc_hd__o21ba_1
*I *1450:X O *D sky130_fd_sc_hd__clkbuf_4
*CAP
1 *1255:A1 0.000162247
2 *1254:B1_N 1.83025e-05
3 *1244:A1 0
4 *1287:A 0
5 *1307:A 0.000134606
6 *1302:A 0
7 *1292:A 0
8 *1297:A 0
9 *1265:B1_N 0
10 *1243:B1_N 6.18465e-05
11 *1450:X 0
12 *204:164 0.000752608
13 *204:126 0.0002184
14 *204:113 0.00066694
15 *204:105 0.00111306
16 *204:103 0.00139602
17 *204:93 0.00119536
18 *204:80 0.000708828
19 *204:63 0.000568344
20 *204:59 0.000614697
21 *204:51 0.00146371
22 *204:32 0.000525326
23 *204:24 0.00142768
24 *204:20 0.000164332
25 *204:16 0.00114421
26 *204:4 0.00164594
27 *1243:B1_N *1278:A1 0.00014196
28 *1254:B1_N *216:26 0
29 *1307:A *1267:A1 0.000114074
30 *1307:A *250:10 6.16531e-05
31 *204:16 *1219:A1 0.000218962
32 *204:16 *267:10 0.000161121
33 *204:32 *1278:A1 3.35937e-05
34 *204:51 *1275:A1 8.4047e-05
35 *204:59 *1281:A1 1.05235e-05
36 *204:59 *205:31 0
37 *204:80 *1288:A1 0.000140259
38 *204:80 *247:10 9.48381e-06
39 *204:126 *214:41 1.69395e-05
40 *204:164 *1451:A 0
41 *204:164 *206:140 0
42 *204:164 *216:26 0.000114774
43 *1223:A2 *204:80 0.000141954
44 *1243:A2 *204:51 0.000999333
45 *1244:B2 *204:20 4.04038e-05
46 *1255:B2 *1255:A1 5.67058e-05
47 *1277:B *204:16 0.000111852
48 *1278:S *204:32 0.000149907
49 *1279:A0 *204:164 0.00026757
50 *1279:S *204:16 0.00022109
51 *1279:S *204:164 0.000128723
52 *1287:B *204:103 2.33476e-05
53 *1290:S *204:103 8.22421e-06
54 *1298:A0 *204:80 2.8936e-05
55 *1302:B *204:126 1.12863e-05
56 *1306:S *204:105 0
57 *1306:S *204:126 2.16985e-05
58 *1356:CLK *204:16 0
59 *1391:RESET_B *204:16 1.94812e-05
60 *1431:A *204:93 8.96211e-05
61 *27:8 *204:164 1.01436e-05
62 *51:10 *204:113 3.56537e-05
63 *90:10 *204:16 0.000141879
64 *92:42 *204:80 0.00043586
65 *92:42 *204:93 4.60312e-05
66 *93:12 *204:113 0
67 *93:27 *1307:A 2.11066e-05
68 *93:27 *204:105 0.000490454
69 *93:27 *204:113 0.000796649
70 *94:12 *204:63 5.50106e-05
71 *94:12 *204:80 0.000137893
72 *95:46 *204:103 0
73 *95:65 *204:105 0.000206455
74 *97:22 *1254:B1_N 4.00259e-06
75 *97:35 *204:59 4.6318e-06
76 *97:52 *204:59 0
77 *97:52 *204:80 1.37232e-05
78 *112:12 *204:16 0.000229454
79 *113:10 *204:16 0.000166522
80 *114:8 *204:32 1.01436e-05
81 *123:8 *1255:A1 6.16164e-05
82 *123:8 *204:164 1.54983e-05
83 *133:10 *204:59 0.000160191
84 *134:10 *204:59 8.4047e-05
85 *135:10 *1307:A 4.13358e-05
86 *136:8 *204:63 2.02872e-05
87 *136:8 *204:80 0.000700222
88 *144:29 *204:16 0.000559353
89 *144:40 *204:16 7.64463e-05
90 *144:40 *204:24 0
91 *144:40 *204:51 0
92 *147:8 *204:113 0.000187977
93 *149:8 *204:126 5.56279e-05
94 *150:14 *1307:A 0
95 *162:23 *204:32 0
96 *168:25 *204:80 4.6595e-05
97 *168:31 *204:80 0
98 *172:35 *204:126 0.000399459
99 *174:61 *204:164 0.00021356
100 *175:193 *204:32 0.00011436
101 *176:62 *204:80 4.59027e-05
102 *184:48 *204:16 2.79543e-05
103 *185:25 *204:24 0
104 *185:25 *204:32 0
105 *185:25 *204:51 0
106 *193:55 *1307:A 0
107 *193:55 *204:105 0
108 *197:61 *204:113 4.15283e-06
109 *200:65 *204:113 3.70094e-05
*RES
1 *1450:X *204:4 23 
2 *204:4 *204:16 37.04 
3 *204:16 *204:20 16.0979 
4 *204:20 *204:24 16.5536 
5 *204:24 *204:32 37.1879 
6 *204:32 *1243:B1_N 39.5743 
7 *204:24 *204:51 44.21 
8 *204:51 *204:59 38.12 
9 *204:59 *204:63 15.6214 
10 *204:63 *1265:B1_N 23 
11 *204:63 *204:80 46.1364 
12 *204:80 *1297:A 23 
13 *204:80 *204:93 3.66643 
14 *204:93 *204:103 33.5237 
15 *204:103 *204:105 6.65964 
16 *204:105 *204:113 29.645 
17 *204:113 *1292:A 23 
18 *204:105 *204:126 35.2821 
19 *204:126 *1302:A 38 
20 *204:103 *1307:A 40.4339 
21 *204:93 *1287:A 23 
22 *204:20 *1244:A1 23 
23 *204:4 *204:164 41.31 
24 *204:164 *1254:B1_N 23.4971 
25 *204:164 *1255:A1 26.5007 
*END

*D_NET *205 0.00859718
*CONN
*I *1282:A I *D sky130_fd_sc_hd__nand2_2
*I *1312:A I *D sky130_fd_sc_hd__nand2_1
*I *1276:S I *D sky130_fd_sc_hd__mux2_1
*I *1266:A1 I *D sky130_fd_sc_hd__a22o_1
*I *1277:A I *D sky130_fd_sc_hd__nand2_2
*I *1451:X O *D sky130_fd_sc_hd__clkbuf_2
*CAP
1 *1282:A 0.000502198
2 *1312:A 2.46226e-05
3 *1276:S 2.00578e-05
4 *1266:A1 0.000271631
5 *1277:A 0
6 *1451:X 9.49349e-05
7 *205:35 0.00038167
8 *205:31 0.00127551
9 *205:25 0.00159955
10 *205:19 0.00122977
11 *205:6 0.000433111
12 *205:31 *1275:A1 7.36502e-05
13 *205:31 *207:128 0
14 *205:31 *217:12 0
15 *205:31 *217:25 0.000271382
16 *205:31 *218:8 3.39231e-05
17 *205:31 *245:21 0.000108681
18 *205:31 *269:25 0
19 *1266:A2 *1266:A1 8.24496e-05
20 *1266:A2 *1276:S 0
21 *1276:A1 *205:35 0.000141954
22 *1277:B *205:6 5.3304e-05
23 *1277:B *205:19 3.46158e-05
24 *1366:RESET_B *205:31 0.000100293
25 *1388:CLK *205:25 0.000174823
26 *32:10 *205:31 1.37349e-05
27 *54:10 *1282:A 0.000137651
28 *54:10 *205:19 0
29 *56:24 *205:31 9.84851e-05
30 *88:27 *1312:A 0
31 *88:27 *205:31 0.000358144
32 *88:36 *205:31 5.3304e-05
33 *97:35 *205:31 0
34 *97:52 *205:31 5.94125e-05
35 *112:12 *205:19 5.76076e-05
36 *134:10 *205:31 0
37 *142:10 *205:31 0
38 *143:8 *205:31 0.000144802
39 *151:32 *205:25 2.03764e-06
40 *151:32 *205:31 8.06804e-06
41 *169:12 *205:31 0
42 *169:33 *205:31 0
43 *171:125 *1282:A 0
44 *171:125 *205:19 0
45 *172:86 *205:31 1.19796e-05
46 *176:12 *1282:A 0.000294034
47 *176:20 *1282:A 0.000197435
48 *194:32 *1282:A 0.000161985
49 *194:32 *205:19 9.03784e-05
50 *204:59 *205:31 0
*RES
1 *1451:X *205:6 24.5743 
2 *205:6 *1277:A 23 
3 *205:6 *205:19 21.6907 
4 *205:19 *205:25 20.8829 
5 *205:25 *205:31 39.07 
6 *205:31 *205:35 17.0507 
7 *205:35 *1266:A1 27.35 
8 *205:35 *1276:S 23.4971 
9 *205:25 *1312:A 23.4971 
10 *205:19 *1282:A 48.295 
*END

*D_NET *206 0.0204001
*CONN
*I *1451:A I *D sky130_fd_sc_hd__clkbuf_2
*I *1450:A I *D sky130_fd_sc_hd__clkbuf_4
*I *1317:A I *D sky130_fd_sc_hd__nand2_2
*I *1337:A I *D sky130_fd_sc_hd__nand2_2
*I *1327:A I *D sky130_fd_sc_hd__nand2_1
*I *1212:A I *D sky130_fd_sc_hd__nand2_1
*I *1332:A I *D sky130_fd_sc_hd__nand2_2
*I *1342:A I *D sky130_fd_sc_hd__nand2_1
*I *1322:A I *D sky130_fd_sc_hd__nand2_2
*I *1347:A I *D sky130_fd_sc_hd__nand2_1
*I *1452:X O *D sky130_fd_sc_hd__clkbuf_4
*CAP
1 *1451:A 0.000152656
2 *1450:A 0
3 *1317:A 3.6708e-05
4 *1337:A 3.68501e-05
5 *1327:A 0
6 *1212:A 0.000245294
7 *1332:A 0
8 *1342:A 0
9 *1322:A 0
10 *1347:A 4.55908e-05
11 *1452:X 0
12 *206:140 0.000924901
13 *206:129 0.00112394
14 *206:115 0.000423033
15 *206:109 0.000701174
16 *206:84 0.00024968
17 *206:69 0.000405606
18 *206:44 0.000856197
19 *206:36 0.000693443
20 *206:34 0.000520467
21 *206:28 0.00119675
22 *206:20 0.00152711
23 *206:12 0.00138747
24 *206:4 0.000330114
25 *1212:A *234:25 0.000216721
26 *206:20 *213:14 3.2196e-05
27 *206:28 *1248:B2 0.000236877
28 *206:34 *234:25 0.000486891
29 *206:44 *235:12 0.000331528
30 *206:69 *214:18 4.00259e-06
31 *206:84 *207:16 0.000375963
32 *206:115 *212:29 0
33 *206:115 *219:23 0.000128908
34 *206:129 *212:29 0
35 *206:140 *212:29 0
36 *1212:B *1212:A 5.3304e-05
37 *1213:S *1212:A 2.02872e-05
38 *1252:D1 *206:140 0
39 *1261:A2 *1347:A 0.000187692
40 *1261:A2 *206:44 0.000126451
41 *1322:B *206:69 3.7685e-05
42 *1333:S *206:84 6.75317e-05
43 *1339:S *206:12 0.000431545
44 *1348:S *206:44 8.43466e-05
45 *1361:CLK *1451:A 2.64616e-05
46 *1365:CLK *206:129 0.000219882
47 *1365:CLK *206:140 0.000387572
48 *1393:CLK *206:140 0.000429621
49 *1408:CLK *206:20 3.71369e-05
50 *1409:CLK *206:129 0.000218952
51 *1410:CLK *206:20 7.24365e-05
52 *1410:RESET_B *206:20 0.000310937
53 *1416:CLK *206:69 0.000186054
54 *19:10 *206:28 1.79651e-05
55 *19:10 *206:34 0
56 *27:8 *1451:A 0
57 *74:10 *206:115 6.93449e-05
58 *86:37 *206:28 0.000266014
59 *86:52 *206:28 0.000141215
60 *87:17 *1212:A 1.14876e-05
61 *89:33 *1317:A 5.3304e-05
62 *103:53 *1337:A 3.17516e-05
63 *103:53 *206:115 1.76557e-05
64 *103:79 *206:129 0.000185096
65 *104:12 *206:20 0.000164291
66 *104:61 *206:115 0
67 *104:61 *206:129 6.11183e-05
68 *107:26 *206:69 6.2763e-06
69 *107:30 *206:69 7.5045e-05
70 *110:10 *206:84 1.05441e-05
71 *110:14 *206:84 0.000270837
72 *111:32 *206:12 0.000139647
73 *118:8 *206:28 0.000209405
74 *118:12 *206:12 1.19796e-05
75 *130:22 *206:34 0.000100139
76 *130:22 *206:44 0.000100161
77 *139:14 *206:20 0
78 *153:12 *206:69 0
79 *153:42 *206:69 0
80 *154:6 *206:115 7.53384e-06
81 *155:6 *206:44 5.12055e-06
82 *155:10 *206:34 2.02872e-05
83 *155:10 *206:36 2.02872e-05
84 *155:10 *206:44 0.000135037
85 *155:42 *206:34 0.000276925
86 *156:16 *1337:A 5.67058e-05
87 *156:16 *206:115 5.50106e-05
88 *156:29 *206:12 0
89 *156:61 *206:115 9.43231e-05
90 *158:30 *1347:A 0.00018304
91 *158:30 *206:44 5.3304e-05
92 *171:34 *206:69 0.000144494
93 *171:94 *206:20 0.000134926
94 *174:50 *206:140 0
95 *174:61 *206:140 0
96 *175:27 *206:115 2.05084e-05
97 *175:64 *206:28 0.00106761
98 *175:123 *206:44 0.000199767
99 *175:123 *206:69 3.30088e-05
100 *175:161 *1212:A 0
101 *178:20 *1212:A 0
102 *178:20 *206:34 0
103 *194:47 *1451:A 0.000151907
104 *194:47 *206:140 6.16531e-05
105 *194:49 *206:140 0.000167452
106 *204:164 *1451:A 0
107 *204:164 *206:140 0
*RES
1 *1452:X *206:4 23 
2 *206:4 *206:12 36.815 
3 *206:12 *206:20 46.2193 
4 *206:20 *206:28 31.5093 
5 *206:28 *206:34 27.3457 
6 *206:34 *206:36 0.621429 
7 *206:36 *206:44 10.8129 
8 *206:44 *1347:A 25.0507 
9 *206:44 *206:69 39.0314 
10 *206:69 *1322:A 23 
11 *206:36 *206:84 36.5457 
12 *206:84 *1342:A 23 
13 *206:34 *1332:A 23 
14 *206:28 *1212:A 43.0336 
15 *206:4 *206:109 15 
16 *206:109 *206:115 23.8657 
17 *206:115 *1327:A 23 
18 *206:115 *1337:A 24.0979 
19 *206:109 *206:129 8.94857 
20 *206:129 *1317:A 38.6214 
21 *206:129 *206:140 17.0479 
22 *206:140 *1450:A 38 
23 *206:140 *1451:A 40.8793 
*END

*D_NET *207 0.0280495
*CONN
*I *1336:A0 I *D sky130_fd_sc_hd__mux2_1
*I *1281:A0 I *D sky130_fd_sc_hd__mux2_1
*I *1286:A0 I *D sky130_fd_sc_hd__mux2_1
*I *1321:A0 I *D sky130_fd_sc_hd__mux2_1
*I *1341:A0 I *D sky130_fd_sc_hd__mux2_1
*I *1331:A0 I *D sky130_fd_sc_hd__mux2_1
*I *1216:A0 I *D sky130_fd_sc_hd__mux2_1
*I *1346:A0 I *D sky130_fd_sc_hd__mux2_1
*I *1351:A0 I *D sky130_fd_sc_hd__mux2_1
*I *1326:A0 I *D sky130_fd_sc_hd__mux2_1
*I *1453:X O *D sky130_fd_sc_hd__buf_2
*CAP
1 *1336:A0 0
2 *1281:A0 4.2583e-05
3 *1286:A0 0
4 *1321:A0 0
5 *1341:A0 4.24857e-05
6 *1331:A0 0
7 *1216:A0 3.7511e-05
8 *1346:A0 0
9 *1351:A0 0
10 *1326:A0 0
11 *1453:X 0
12 *207:145 0.000559579
13 *207:128 0.00140344
14 *207:126 0.00157277
15 *207:117 0.000438248
16 *207:104 0.00045434
17 *207:84 0.000682382
18 *207:78 0.0011233
19 *207:64 0.00108481
20 *207:51 0.000495884
21 *207:49 0.000866248
22 *207:45 0.00186134
23 *207:28 0.00033176
24 *207:18 0.000699729
25 *207:16 0.00113907
26 *207:8 0.00108264
27 *207:4 0.000747048
28 *1216:A0 *1216:A1 9.84794e-05
29 *1281:A0 *1281:A1 9.84851e-05
30 *207:18 *238:6 5.79559e-05
31 *207:18 *238:21 4.44329e-05
32 *207:28 *214:35 4.89774e-05
33 *207:28 *238:6 0.000227935
34 *207:49 *225:22 0.000207991
35 *207:49 *242:10 0
36 *207:64 *1216:A1 0.000168694
37 *207:64 *274:10 3.22879e-05
38 *207:78 *1341:A1 4.6318e-06
39 *207:84 *1271:A1 0.0001642
40 *207:84 *1331:A1 4.08537e-05
41 *207:126 *1286:A1 5.67058e-05
42 *207:128 *1270:A1 7.76364e-06
43 *207:128 *1275:A1 0
44 *207:145 *1336:A1 0
45 *207:145 *225:10 9.91798e-05
46 *1216:S *1216:A0 0.00010018
47 *1248:B1 *207:49 2.46922e-05
48 *1280:A0 *207:128 0.000150977
49 *1286:S *207:126 0.000135037
50 *1321:S *207:104 3.14214e-05
51 *1321:S *207:117 2.54046e-05
52 *1333:S *207:16 0
53 *1340:A0 *207:84 0.000185755
54 *1353:CLK *207:16 0.000415115
55 *1355:RESET_B *207:49 0.000363877
56 *1395:RESET_B *207:64 7.24698e-05
57 *1406:D *207:45 0.00010655
58 *20:10 *207:49 0
59 *33:12 *207:117 3.7122e-06
60 *61:10 *207:78 1.01436e-05
61 *61:10 *207:104 0.000129793
62 *71:10 *207:18 0.000274078
63 *72:8 *207:49 0.000166522
64 *73:10 *207:145 0
65 *81:10 *207:16 8.04127e-05
66 *88:42 *207:128 0.000929314
67 *88:50 *207:128 3.97296e-05
68 *88:72 *207:128 0.000423298
69 *94:20 *207:128 0
70 *102:29 *207:117 1.76095e-05
71 *102:29 *207:126 7.9567e-06
72 *103:8 *207:49 0
73 *104:12 *207:78 0
74 *106:35 *207:49 1.6873e-05
75 *106:45 *207:49 0.000145517
76 *110:10 *207:16 0.000130154
77 *111:26 *207:49 2.62562e-05
78 *118:8 *1341:A0 5.50106e-05
79 *118:8 *207:78 0.00015633
80 *118:12 *207:128 0
81 *138:8 *207:128 6.67764e-05
82 *139:14 *207:78 0.000170899
83 *139:14 *207:84 0
84 *140:6 *1216:A0 1.03836e-05
85 *140:6 *207:64 8.17546e-05
86 *142:10 *207:104 0
87 *142:10 *207:128 0.000307802
88 *155:57 *207:145 0.000278447
89 *156:29 *207:78 2.36844e-05
90 *156:29 *207:84 0.000106676
91 *160:14 *207:8 9.41704e-05
92 *160:23 *207:8 5.3304e-05
93 *171:40 *207:145 0.000138911
94 *171:50 *207:145 4.54033e-05
95 *171:121 *207:78 7.80035e-05
96 *171:121 *207:84 0.000166522
97 *171:121 *207:128 0.000554754
98 *171:125 *207:128 0.00139173
99 *173:12 *207:18 0.000150938
100 *173:22 *207:18 0.000776976
101 *173:22 *207:28 0.000272033
102 *173:136 *207:49 0
103 *175:64 *207:78 0.000279361
104 *178:28 *207:28 0.000180519
105 *179:18 *207:49 0.000203416
106 *179:20 *207:49 0.000120405
107 *179:49 *207:49 0.000325816
108 *179:56 *207:49 0.000314943
109 *180:59 *207:78 0
110 *180:59 *207:128 0.000291656
111 *185:52 *207:128 0
112 *187:78 *207:16 0.000369939
113 *189:27 *207:45 3.71251e-05
114 *189:35 *207:49 0
115 *189:53 *207:8 0
116 *189:53 *207:45 1.68097e-05
117 *189:53 *207:145 1.17821e-05
118 *189:65 *207:84 7.76364e-06
119 *189:69 *207:84 9.84851e-05
120 *189:88 *207:84 0
121 *190:16 *207:64 0.000103637
122 *190:16 *207:104 0
123 *190:16 *207:117 0
124 *190:22 *207:78 0.000222104
125 *190:22 *207:104 5.24393e-05
126 *190:33 *207:64 2.02872e-05
127 *205:31 *207:128 0
128 *206:84 *207:16 0.000375963
*RES
1 *1453:X *207:4 23 
2 *207:4 *207:8 5.03357 
3 *207:8 *207:16 47.2757 
4 *207:16 *207:18 10.6264 
5 *207:18 *207:28 36.6079 
6 *207:28 *1326:A0 23 
7 *207:18 *1351:A0 23 
8 *207:8 *1346:A0 23 
9 *207:4 *207:45 6.33857 
10 *207:45 *207:49 35.5693 
11 *207:49 *207:51 15 
12 *207:51 *1216:A0 24.5743 
13 *207:51 *207:64 25.6471 
14 *207:64 *207:78 41.2271 
15 *207:78 *207:84 29.3964 
16 *207:84 *1331:A0 23 
17 *207:78 *1341:A0 38.6214 
18 *207:64 *207:104 4.43286 
19 *207:104 *1321:A0 38 
20 *207:104 *207:117 18.2521 
21 *207:117 *1286:A0 23 
22 *207:117 *207:126 18.0036 
23 *207:126 *207:128 37.8243 
24 *207:128 *1281:A0 39.0979 
25 *207:45 *207:145 41.3721 
26 *207:145 *1336:A0 23 
*END

*D_NET *208 0.0157622
*CONN
*I *1301:A0 I *D sky130_fd_sc_hd__mux2_1
*I *1311:A0 I *D sky130_fd_sc_hd__mux2_1
*I *1306:A0 I *D sky130_fd_sc_hd__mux2_1
*I *1291:A0 I *D sky130_fd_sc_hd__mux2_1
*I *1316:A0 I *D sky130_fd_sc_hd__mux2_1
*I *1296:A0 I *D sky130_fd_sc_hd__mux2_1
*I *1454:X O *D sky130_fd_sc_hd__dlymetal6s2s_1
*CAP
1 *1301:A0 0
2 *1311:A0 0
3 *1306:A0 0
4 *1291:A0 6.90555e-05
5 *1316:A0 0
6 *1296:A0 0
7 *1454:X 3.21736e-05
8 *208:99 0.000801119
9 *208:83 0.000154059
10 *208:68 0.000630822
11 *208:62 0.000969104
12 *208:54 0.00139805
13 *208:50 0.000868693
14 *208:39 0.000924975
15 *208:31 0.00200219
16 *208:24 0.000580861
17 *208:8 0.000857088
18 *1291:A0 *1291:A1 5.3304e-05
19 *208:24 *1269:B2 8.77453e-05
20 *208:24 *234:25 7.38457e-05
21 *208:39 *1258:A1 3.68672e-05
22 *208:39 *273:14 6.39489e-06
23 *208:62 *1268:A1 2.64836e-05
24 *208:68 *1291:A1 0.000475916
25 *208:83 *262:6 0.000144501
26 *208:99 *1268:A1 0
27 *208:99 *1301:A1 0.000141954
28 *1258:A2 *208:39 6.65155e-05
29 *1268:B1 *208:62 0.000172996
30 *1269:C1 *208:24 9.84851e-05
31 *1295:A0 *208:39 2.18409e-05
32 *1295:S *208:31 0
33 *1295:S *208:39 0.000180224
34 *1296:S *208:24 0
35 *1296:S *208:31 0
36 *1307:B *208:62 0.000226295
37 *1307:B *208:68 0.0002313
38 *1368:RESET_B *208:50 0.000518945
39 *1376:CLK *208:99 3.98818e-05
40 *1376:D *208:99 7.88828e-05
41 *42:8 *208:99 0
42 *44:8 *208:50 0.000116314
43 *57:10 *208:39 0.000123944
44 *92:18 *208:8 2.64616e-05
45 *92:54 *208:62 0.000256886
46 *101:10 *208:24 8.4047e-05
47 *101:26 *208:24 5.50049e-05
48 *102:66 *208:39 1.94693e-05
49 *121:10 *208:8 2.64616e-05
50 *127:10 *208:39 0.000230604
51 *146:19 *208:54 5.94125e-05
52 *146:19 *208:99 1.01436e-05
53 *146:44 *208:62 9.24795e-06
54 *146:44 *208:68 0.000194219
55 *146:44 *208:99 7.39034e-05
56 *146:54 *1291:A0 2.64616e-05
57 *146:54 *208:68 6.17437e-06
58 *146:54 *208:83 0.000135547
59 *148:14 *208:50 0.000234804
60 *148:32 *208:50 3.56433e-05
61 *148:32 *208:99 0
62 *150:6 *208:68 1.76557e-05
63 *151:18 *208:39 5.67058e-05
64 *160:25 *208:24 0
65 *167:31 *208:24 0.00024723
66 *167:41 *208:39 3.42563e-05
67 *168:25 *208:50 0.000390685
68 *168:25 *208:54 1.83564e-05
69 *168:25 *208:62 9.67842e-05
70 *176:28 *208:50 7.08351e-05
71 *182:92 *208:31 0
72 *182:92 *208:50 0
73 *182:106 *208:50 0.000194309
74 *191:118 *208:54 0
75 *191:118 *208:99 0
76 *194:8 *208:50 8.51329e-05
77 *195:10 *208:99 0
78 *196:75 *208:99 0
79 *196:90 *208:24 8.72173e-05
80 *196:90 *208:31 0.000460568
81 *196:90 *208:50 0.000188926
82 *196:100 *208:24 0.000105798
83 *199:19 *208:24 1.24376e-05
*RES
1 *1454:X *208:8 38.6214 
2 *208:8 *208:24 27.9464 
3 *208:24 *1296:A0 23 
4 *208:8 *208:31 6.13143 
5 *208:31 *208:39 33.2907 
6 *208:39 *1316:A0 23 
7 *208:31 *208:50 35.0721 
8 *208:50 *208:54 15.8493 
9 *208:54 *208:62 25.1914 
10 *208:62 *208:68 9.83929 
11 *208:68 *1291:A0 24.0979 
12 *208:68 *208:83 33.48 
13 *208:83 *1306:A0 23 
14 *208:62 *1311:A0 23 
15 *208:54 *208:99 29.6864 
16 *208:99 *1301:A0 23 
*END

*D_NET *209 0.0168287
*CONN
*I *1236:D I *D sky130_fd_sc_hd__and4bb_2
*I *1224:D I *D sky130_fd_sc_hd__and4bb_2
*I *1218:D_N I *D sky130_fd_sc_hd__nor4b_1
*I *1211:B I *D sky130_fd_sc_hd__and4_1
*I *1220:B I *D sky130_fd_sc_hd__nor2_1
*I *1217:D I *D sky130_fd_sc_hd__and4b_2
*I *1239:C I *D sky130_fd_sc_hd__and4b_2
*I *1222:A I *D sky130_fd_sc_hd__nor4b_1
*I *1228:D I *D sky130_fd_sc_hd__and4bb_2
*I *1238:A_N I *D sky130_fd_sc_hd__and4b_2
*I *1455:X O *D sky130_fd_sc_hd__clkbuf_2
*CAP
1 *1236:D 0
2 *1224:D 7.70864e-05
3 *1218:D_N 0
4 *1211:B 0
5 *1220:B 0
6 *1217:D 0
7 *1239:C 0
8 *1222:A 0.000342741
9 *1228:D 0
10 *1238:A_N 0
11 *1455:X 3.42817e-05
12 *209:159 0.000272905
13 *209:134 0.000216382
14 *209:126 0.000307982
15 *209:119 0.00019558
16 *209:106 0.000748374
17 *209:98 0.00149035
18 *209:82 0.00103298
19 *209:73 0.000399233
20 *209:65 0.000551134
21 *209:37 0.000580775
22 *209:33 0.000662377
23 *209:25 0.00114409
24 *209:6 0.000523087
25 *1224:D *1227:B2 0.000264559
26 *209:37 *1303:A1 3.14274e-05
27 *209:37 *259:8 1.94522e-05
28 *209:73 *259:8 1.01436e-05
29 *209:82 *1227:B2 0.000315857
30 *209:98 *1227:B2 9.0794e-05
31 *209:98 *210:29 0.000309012
32 *209:106 *254:10 2.43944e-05
33 *209:119 *210:65 8.06039e-05
34 *209:159 *260:35 2.18409e-05
35 *1222:D_N *1222:A 6.38659e-05
36 *1222:D_N *209:37 1.14452e-05
37 *1225:D *209:98 9.5877e-05
38 *1226:C *209:119 0.000218952
39 *1226:D *209:106 9.77405e-05
40 *1226:D *209:119 8.43466e-05
41 *1238:C *209:159 5.50106e-05
42 *1380:RESET_B *209:25 0.000347506
43 *1380:RESET_B *209:33 0.00020382
44 *1381:RESET_B *209:25 4.83949e-05
45 *1456:A *1222:A 0.000115578
46 *1469:A *209:98 9.00923e-05
47 *47:10 *209:6 4.04598e-06
48 *47:10 *209:25 3.28496e-05
49 *86:16 *209:98 4.10817e-05
50 *88:8 *209:119 1.01436e-05
51 *92:10 *209:119 2.3529e-05
52 *93:12 *1222:A 5.50049e-05
53 *95:12 *1224:D 0.000136743
54 *95:12 *209:98 0.000136743
55 *95:33 *209:98 3.3123e-05
56 *95:42 *209:98 3.20914e-05
57 *96:8 *209:98 0
58 *98:18 *209:37 0
59 *99:33 *1222:A 8.4047e-05
60 *99:55 *209:106 0.000348911
61 *106:20 *209:134 0.000283288
62 *160:25 *209:106 0.000450174
63 *167:10 *209:98 4.9662e-05
64 *167:10 *209:126 4.05745e-05
65 *173:63 *209:159 0.000118018
66 *182:10 *209:106 7.15126e-05
67 *186:97 *209:134 0.000129536
68 *188:80 *209:33 5.3304e-05
69 *188:80 *209:159 0.000107762
70 *196:32 *209:25 8.03907e-05
71 *196:100 *209:106 0.000447942
72 *197:14 *209:25 6.17437e-06
73 *197:61 *1222:A 1.59208e-05
74 *197:61 *209:37 1.86973e-05
75 *197:86 *209:73 0
76 *197:120 *209:126 9.41704e-05
77 *197:139 *209:106 0.000123944
78 *198:49 *209:119 1.14452e-05
79 *199:93 *209:106 9.67842e-05
80 *200:18 *209:159 2.24608e-05
81 *200:50 *209:73 0
82 *200:72 *209:73 9.84851e-05
83 *200:87 *209:73 0.000173898
84 *200:122 *209:98 8.47805e-05
85 *200:122 *209:126 8.27026e-05
86 *201:18 *209:25 0.000633231
87 *201:18 *209:33 5.90675e-06
88 *201:25 *209:25 3.88766e-05
89 *201:25 *209:33 0.000362539
90 *201:46 *209:33 0.000136507
91 *201:50 *209:37 0.000456496
92 *201:50 *209:73 6.7177e-06
93 *201:78 *209:33 5.50106e-05
94 *201:78 *209:65 8.52481e-05
95 *201:78 *209:82 0.000168821
96 *201:78 *209:98 3.91386e-05
97 *201:82 *209:73 0
98 *201:88 *209:73 0
99 *202:10 *209:98 4.17929e-05
100 *202:16 *209:98 1.83667e-05
101 *202:42 *209:119 0
*RES
1 *1455:X *209:6 23.6214 
2 *209:6 *1238:A_N 23 
3 *209:6 *209:25 43.4229 
4 *209:25 *209:33 10.3364 
5 *209:33 *209:37 21.1314 
6 *209:37 *1228:D 38 
7 *209:37 *1222:A 45.0221 
8 *209:33 *209:65 1.09786 
9 *209:65 *209:73 36.67 
10 *209:73 *1239:C 23 
11 *209:65 *209:82 4.45357 
12 *209:82 *209:98 46.0743 
13 *209:98 *209:106 44.3757 
14 *209:106 *1217:D 23 
15 *209:106 *209:119 34.7643 
16 *209:119 *1220:B 23 
17 *209:98 *209:126 2.05071 
18 *209:126 *209:134 34.64 
19 *209:134 *1211:B 23 
20 *209:126 *1218:D_N 23 
21 *209:82 *1224:D 26.0036 
22 *209:25 *209:159 34.7643 
23 *209:159 *1236:D 23 
*END

*D_NET *210 0.00836206
*CONN
*I *1225:B I *D sky130_fd_sc_hd__nor4_1
*I *1226:B I *D sky130_fd_sc_hd__or4_2
*I *1233:A_N I *D sky130_fd_sc_hd__and4bb_2
*I *1235:B I *D sky130_fd_sc_hd__and4b_2
*I *1229:A_N I *D sky130_fd_sc_hd__and4bb_1
*I *1456:X O *D sky130_fd_sc_hd__buf_1
*CAP
1 *1225:B 0
2 *1226:B 0
3 *1233:A_N 0
4 *1235:B 0.000116125
5 *1229:A_N 6.91723e-05
6 *1456:X 0.000214269
7 *210:65 0.000363296
8 *210:52 0.00091851
9 *210:33 0.000728996
10 *210:29 0.000784975
11 *210:10 0.000796492
12 *210:8 0.000214269
13 *1235:B *1227:A1 0
14 *1224:B_N *210:29 9.168e-05
15 *1229:C *210:29 5.90075e-05
16 *1273:B1 *210:65 0
17 *86:6 *210:52 0.000255642
18 *86:16 *210:29 8.94487e-05
19 *86:16 *210:52 0.000135037
20 *91:48 *210:65 8.62783e-05
21 *95:42 *210:29 0
22 *96:8 *210:29 9.58714e-05
23 *98:12 *210:29 2.26406e-05
24 *100:8 *210:29 4.6318e-06
25 *102:10 *210:65 0
26 *102:29 *210:52 5.12992e-05
27 *102:29 *210:65 5.47808e-05
28 *102:66 *210:65 0
29 *103:8 *210:65 0.000162152
30 *115:14 *210:8 0.000320661
31 *116:14 *210:8 0.000149128
32 *116:14 *210:29 0.000120422
33 *192:23 *1229:A_N 4.96717e-05
34 *192:23 *210:29 8.21412e-05
35 *198:49 *210:65 1.84329e-05
36 *199:27 *1235:B 0.000142126
37 *199:27 *210:33 0.000107218
38 *199:34 *1235:B 5.3304e-05
39 *202:16 *1235:B 3.39192e-05
40 *202:16 *210:33 9.88303e-05
41 *202:16 *210:52 0.00017761
42 *202:25 *210:52 0.000765557
43 *202:42 *210:52 0.000196837
44 *202:42 *210:65 0.000342012
45 *209:98 *210:29 0.000309012
46 *209:119 *210:65 8.06039e-05
*RES
1 *1456:X *210:8 42.3707 
2 *210:8 *210:10 15 
3 *210:10 *1229:A_N 24.0979 
4 *210:10 *210:29 42.18 
5 *210:29 *210:33 16.5536 
6 *210:33 *1235:B 40.175 
7 *210:33 *210:52 28.5264 
8 *210:52 *1233:A_N 23 
9 *210:52 *210:65 39.4664 
10 *210:65 *1226:B 23 
11 *210:29 *1225:B 23 
*END

*D_NET *211 0.00129383
*CONN
*I *1434:A I *D sky130_fd_sc_hd__buf_2
*I *1464:X O *D sky130_fd_sc_hd__clkbuf_1
*CAP
1 *1434:A 0.000149531
2 *1464:X 0.000225953
3 *211:8 0.000375483
4 *1434:A *212:8 0.000272458
5 *1465:A *211:8 9.2511e-05
6 *186:38 *1434:A 0.000177899
7 *186:38 *211:8 0
*RES
1 *1464:X *211:8 42.7229 
2 *211:8 *1434:A 43.3857 
*END

*D_NET *212 0.00973227
*CONN
*I *1425:A I *D sky130_fd_sc_hd__dlymetal6s2s_1
*I *1424:A I *D sky130_fd_sc_hd__buf_2
*I *1465:X O *D sky130_fd_sc_hd__buf_1
*CAP
1 *1425:A 8.32623e-05
2 *1424:A 0.000123439
3 *1465:X 0.00032088
4 *212:29 0.00172232
5 *212:8 0.00208337
6 *212:29 *1339:A1 4.08376e-06
7 *212:29 *216:26 0.000506685
8 *1365:RESET_B *212:29 0.000329201
9 *1400:RESET_B *1424:A 3.0647e-05
10 *1400:RESET_B *212:29 1.58805e-05
11 *1408:RESET_B *212:29 0.000126548
12 *1409:RESET_B *212:29 0.000166522
13 *1434:A *212:8 0.000272458
14 *27:8 *212:29 4.95442e-05
15 *31:8 *212:29 0.000141879
16 *75:8 *212:29 0.000141879
17 *103:79 *212:29 0.000210376
18 *145:20 *212:29 0.00140876
19 *154:19 *1424:A 0
20 *154:19 *212:29 0
21 *174:26 *212:29 0
22 *174:50 *212:29 0.00032122
23 *174:61 *212:29 0.000182065
24 *175:27 *212:29 0.00026283
25 *175:42 *212:29 0
26 *175:193 *212:29 0.000351626
27 *176:6 *1425:A 4.17736e-05
28 *176:12 *1425:A 9.5877e-05
29 *179:8 *1424:A 0.000230604
30 *179:85 *1424:A 1.03836e-05
31 *179:85 *212:8 9.67842e-05
32 *179:97 *212:29 0.000163448
33 *186:8 *1424:A 0.000185434
34 *186:8 *212:8 3.17516e-05
35 *186:38 *212:8 2.07355e-05
36 *194:45 *212:29 0
37 *194:47 *212:29 0
38 *206:115 *212:29 0
39 *206:129 *212:29 0
40 *206:140 *212:29 0
*RES
1 *1465:X *212:8 45.2914 
2 *212:8 *1424:A 41.8529 
3 *212:8 *212:29 46.0479 
4 *212:29 *1425:A 39.5743 
*END

*D_NET *213 0.00855017
*CONN
*I *1423:A I *D sky130_fd_sc_hd__buf_1
*I *1422:A I *D sky130_fd_sc_hd__clkbuf_2
*I *1466:X O *D sky130_fd_sc_hd__buf_1
*CAP
1 *1423:A 0
2 *1422:A 0
3 *1466:X 0.000206082
4 *213:27 0.000326071
5 *213:14 0.00227574
6 *213:6 0.00280789
7 *213:6 *1234:A1 6.74969e-06
8 *213:6 *227:6 4.38068e-06
9 *213:14 *1234:A1 3.73435e-05
10 *213:14 *229:10 5.50106e-05
11 *1215:A0 *213:14 8.48502e-06
12 *1215:S *213:14 0.0004057
13 *1338:A0 *213:27 0
14 *1392:RESET_B *213:27 5.50049e-05
15 *1408:CLK *213:14 0.000248446
16 *1410:CLK *213:14 0.000103637
17 *20:10 *213:14 9.67842e-05
18 *161:10 *213:27 9.74235e-05
19 *171:94 *213:14 0.00081167
20 *173:12 *213:14 5.90675e-06
21 *174:12 *213:27 7.8085e-05
22 *174:44 *213:27 2.46933e-05
23 *175:27 *213:14 0.000161615
24 *175:42 *213:27 0
25 *186:38 *213:27 0.000675699
26 *186:49 *213:27 2.55642e-05
27 *206:20 *213:14 3.2196e-05
*RES
1 *1466:X *213:6 25.5271 
2 *213:6 *213:14 35.9393 
3 *213:14 *1422:A 23 
4 *213:6 *213:27 39.9221 
5 *213:27 *1423:A 23 
*END

*D_NET *214 0.0110517
*CONN
*I *1421:A I *D sky130_fd_sc_hd__dlymetal6s2s_1
*I *1420:A I *D sky130_fd_sc_hd__buf_2
*I *1467:X O *D sky130_fd_sc_hd__buf_1
*CAP
1 *1421:A 0
2 *1420:A 0.000115058
3 *1467:X 0.000614582
4 *214:41 0.00160701
5 *214:35 0.00247613
6 *214:18 0.00111506
7 *214:12 0.00074546
8 *214:35 *260:35 0
9 *214:41 *1245:A1 0.000321581
10 *214:41 *1289:A1 0.000216721
11 *214:41 *260:35 5.58152e-06
12 *214:41 *261:25 4.67488e-05
13 *1236:C *214:41 0
14 *1303:A0 *214:41 0
15 *1322:B *214:18 0
16 *1323:S *214:12 6.79006e-05
17 *1398:RESET_B *214:35 0
18 *65:10 *214:35 0.000139647
19 *99:16 *214:41 0.000343064
20 *107:10 *214:41 6.33614e-05
21 *107:18 *214:35 3.70187e-05
22 *107:18 *214:41 7.90568e-05
23 *109:41 *214:35 0.000164312
24 *130:10 *214:35 1.13845e-05
25 *146:54 *214:41 0.000401825
26 *149:24 *214:41 1.55115e-05
27 *149:36 *214:41 0.000421803
28 *153:12 *214:12 0.00020007
29 *153:12 *214:35 3.70187e-05
30 *153:42 *214:35 0.00083662
31 *153:59 *214:35 0.000398924
32 *171:34 *1420:A 0.000152787
33 *171:34 *214:18 1.79538e-05
34 *173:101 *214:41 3.50803e-06
35 *175:97 *214:12 8.87374e-05
36 *175:144 *214:35 0
37 *176:50 *214:41 7.09774e-05
38 *181:22 *214:41 8.21456e-06
39 *183:16 *214:41 2.81066e-05
40 *188:80 *214:35 0
41 *200:18 *214:41 4.70939e-05
42 *201:37 *214:41 8.29264e-05
43 *204:126 *214:41 1.69395e-05
44 *206:69 *214:18 4.00259e-06
45 *207:28 *214:35 4.89774e-05
*RES
1 *1467:X *214:12 48.8957 
2 *214:12 *214:18 16.9471 
3 *214:18 *1420:A 26.0036 
4 *214:18 *214:35 34.4921 
5 *214:35 *214:41 48.9921 
6 *214:41 *1421:A 23 
*END

*D_NET *215 0.00133439
*CONN
*I *1243:A1 I *D sky130_fd_sc_hd__o21ba_1
*I *1278:A1 I *D sky130_fd_sc_hd__mux2_1
*I *1360:Q O *D sky130_fd_sc_hd__dfrtp_1
*CAP
1 *1243:A1 0.000127008
2 *1278:A1 9.37518e-05
3 *1360:Q 0.000120884
4 *215:10 0.00022076
5 *215:8 0.000120884
6 *1243:A2 *1243:A1 0.000117712
7 *1243:A2 *1278:A1 0.000246123
8 *1243:B1_N *1278:A1 0.00014196
9 *1278:S *1278:A1 5.67058e-05
10 *175:193 *1278:A1 5.50049e-05
11 *185:25 *215:8 0
12 *204:32 *1278:A1 3.35937e-05
*RES
1 *1360:Q *215:8 39.9057 
2 *215:8 *215:10 15 
3 *215:10 *1278:A1 27.1221 
4 *215:10 *1243:A1 26.5421 
*END

*D_NET *216 0.00329621
*CONN
*I *1279:A1 I *D sky130_fd_sc_hd__mux2_1
*I *1254:A1 I *D sky130_fd_sc_hd__o21ba_1
*I *1361:Q O *D sky130_fd_sc_hd__dfrtp_1
*CAP
1 *1279:A1 0
2 *1254:A1 0
3 *1361:Q 0.000401588
4 *216:26 0.000434094
5 *216:14 0.000477156
6 *216:10 0.00044465
7 *1253:A *216:26 0
8 *1254:B1_N *216:26 0
9 *1279:A0 *216:26 0.000275473
10 *1279:S *216:14 4.2573e-05
11 *1279:S *216:26 0.000175903
12 *27:8 *216:26 1.14452e-05
13 *97:22 *216:26 5.55687e-05
14 *123:8 *216:26 1.21972e-05
15 *174:61 *216:26 0.000188926
16 *184:42 *216:10 6.88885e-05
17 *184:48 *216:10 8.62876e-05
18 *204:164 *216:26 0.000114774
19 *212:29 *216:26 0.000506685
*RES
1 *1361:Q *216:10 43.6343 
2 *216:10 *216:14 15.6214 
3 *216:14 *216:26 40.9579 
4 *216:26 *1254:A1 23 
5 *216:14 *1279:A1 23 
*END

*D_NET *217 0.00234049
*CONN
*I *1280:A1 I *D sky130_fd_sc_hd__mux2_1
*I *1265:A1 I *D sky130_fd_sc_hd__o21ba_1
*I *1362:Q O *D sky130_fd_sc_hd__dfrtp_1
*CAP
1 *1280:A1 0
2 *1265:A1 0
3 *1362:Q 0
4 *217:25 0.000310331
5 *217:12 0.000274658
6 *217:4 0.000584989
7 *217:25 *245:21 3.7122e-06
8 *1366:CLK *217:25 0.000268873
9 *1366:RESET_B *217:12 0.000181125
10 *28:8 *217:25 0
11 *97:35 *217:12 6.93553e-05
12 *142:10 *217:25 0
13 *169:33 *217:25 9.57123e-05
14 *186:72 *217:25 0.000268873
15 *186:76 *217:12 1.14762e-05
16 *205:31 *217:12 0
17 *205:31 *217:25 0.000271382
*RES
1 *1362:Q *217:4 23 
2 *217:4 *217:12 34.4329 
3 *217:12 *1265:A1 23 
4 *217:4 *217:25 38.5757 
5 *217:25 *1280:A1 23 
*END

*D_NET *218 0.00156149
*CONN
*I *1281:A1 I *D sky130_fd_sc_hd__mux2_1
*I *1275:A1 I *D sky130_fd_sc_hd__o22a_1
*I *1363:Q O *D sky130_fd_sc_hd__dfrtp_1
*CAP
1 *1281:A1 0.000210688
2 *1275:A1 0.000230634
3 *1363:Q 7.3806e-05
4 *218:8 0.000515128
5 *1281:A0 *1281:A1 9.84851e-05
6 *29:10 *1281:A1 0.000230604
7 *204:51 *1275:A1 8.4047e-05
8 *204:59 *1281:A1 1.05235e-05
9 *205:31 *1275:A1 7.36502e-05
10 *205:31 *218:8 3.39231e-05
11 *207:128 *1275:A1 0
*RES
1 *1363:Q *218:8 39.5536 
2 *218:8 *1275:A1 42.4329 
3 *218:8 *1281:A1 42.9093 
*END

*D_NET *219 0.00331674
*CONN
*I *1234:B2 I *D sky130_fd_sc_hd__a22o_1
*I *1328:A1 I *D sky130_fd_sc_hd__mux2_1
*I *1400:Q O *D sky130_fd_sc_hd__dfrtp_1
*CAP
1 *1234:B2 0
2 *1328:A1 7.00224e-05
3 *1400:Q 0.000238838
4 *219:23 0.000420191
5 *219:8 0.000729051
6 *219:23 *1234:A1 2.93845e-05
7 *1331:S *219:8 2.64616e-05
8 *1400:RESET_B *219:8 7.80291e-05
9 *1408:CLK *219:23 5.50106e-05
10 *104:44 *219:23 0.000448982
11 *104:61 *219:23 1.14452e-05
12 *154:19 *1328:A1 5.24393e-05
13 *154:19 *219:23 0.000401816
14 *154:21 *1328:A1 0.000127272
15 *154:27 *1328:A1 1.14452e-05
16 *175:12 *1328:A1 0.000193388
17 *175:12 *219:23 0.000294055
18 *175:27 *219:23 0
19 *189:88 *219:23 0
20 *206:115 *219:23 0.000128908
*RES
1 *1400:Q *219:8 42.4329 
2 *219:8 *1328:A1 40.61 
3 *219:8 *219:23 27.3871 
4 *219:23 *1234:B2 23 
*END

*D_NET *220 0.00558313
*CONN
*I *1252:A1 I *D sky130_fd_sc_hd__a2111o_1
*I *1329:A1 I *D sky130_fd_sc_hd__mux2_1
*I *1401:Q O *D sky130_fd_sc_hd__dfrtp_1
*CAP
1 *1252:A1 0
2 *1329:A1 9.22991e-05
3 *1401:Q 0.000683273
4 *220:25 0.000697943
5 *220:8 0.00147351
6 *220:25 *1241:A1 0.000302358
7 *220:25 *1318:A1 8.62783e-05
8 *1286:S *220:25 0.000219383
9 *1318:S *220:25 0.000400895
10 *1338:A0 *220:8 3.22879e-05
11 *67:10 *1329:A1 8.4047e-05
12 *67:10 *220:25 3.70187e-05
13 *101:32 *220:25 0
14 *103:45 *220:25 0.000269151
15 *103:53 *1329:A1 8.62876e-05
16 *103:53 *220:25 0.000290884
17 *104:44 *220:25 0.000131067
18 *104:61 *220:25 0.000110657
19 *105:8 *220:25 9.59009e-05
20 *112:12 *220:25 4.08641e-05
21 *152:25 *220:25 0.000179712
22 *156:16 *1329:A1 5.3304e-05
23 *156:61 *220:8 0.000115899
24 *175:62 *220:25 0.000100108
*RES
1 *1401:Q *220:8 46.2443 
2 *220:8 *1329:A1 39.8229 
3 *220:8 *220:25 34.575 
4 *220:25 *1252:A1 23 
*END

*D_NET *221 0.00400793
*CONN
*I *1330:A1 I *D sky130_fd_sc_hd__mux2_1
*I *1260:A1 I *D sky130_fd_sc_hd__a22o_1
*I *1402:Q O *D sky130_fd_sc_hd__dfrtp_1
*CAP
1 *1330:A1 0
2 *1260:A1 0
3 *1402:Q 0
4 *221:27 0.000291743
5 *221:14 0.000761672
6 *221:4 0.00105342
7 *221:14 *1271:B2 7.1357e-05
8 *221:27 *1271:B2 0.00021673
9 *221:27 *1336:A1 3.70094e-05
10 *1260:A2 *221:14 0.00073928
11 *1335:A0 *221:14 9.67842e-05
12 *1403:CLK *221:14 2.55642e-05
13 *1426:A *221:14 9.91701e-05
14 *68:10 *221:27 0.000230604
15 *155:57 *221:14 0
16 *171:34 *221:14 1.76557e-05
17 *171:50 *221:27 0.000264098
18 *179:16 *221:14 1.6558e-05
19 *189:53 *221:14 8.62876e-05
*RES
1 *1402:Q *221:4 23 
2 *221:4 *221:14 45.6186 
3 *221:14 *1260:A1 23 
4 *221:4 *221:27 38.2236 
5 *221:27 *1330:A1 23 
*END

*D_NET *222 0.00195436
*CONN
*I *1271:A1 I *D sky130_fd_sc_hd__a22o_1
*I *1331:A1 I *D sky130_fd_sc_hd__mux2_1
*I *1403:Q O *D sky130_fd_sc_hd__dfrtp_1
*CAP
1 *1271:A1 0.000343271
2 *1331:A1 4.50565e-05
3 *1403:Q 0.000235938
4 *222:8 0.000624265
5 *1271:A1 *1271:B2 0
6 *69:10 *1271:A1 0
7 *104:29 *1271:A1 2.4754e-05
8 *104:40 *1271:A1 0.000269775
9 *139:14 *1271:A1 0
10 *179:8 *222:8 7.06229e-05
11 *179:16 *222:8 4.9346e-05
12 *189:65 *1331:A1 8.62783e-05
13 *207:84 *1271:A1 0.0001642
14 *207:84 *1331:A1 4.08537e-05
*RES
1 *1403:Q *222:8 41.48 
2 *222:8 *1331:A1 39.2014 
3 *222:8 *1271:A1 45.8507 
*END

*D_NET *223 0.00250804
*CONN
*I *1333:A1 I *D sky130_fd_sc_hd__mux2_1
*I *1240:B2 I *D sky130_fd_sc_hd__a221o_1
*I *1404:Q O *D sky130_fd_sc_hd__dfrtp_1
*CAP
1 *1333:A1 9.8914e-05
2 *1240:B2 0
3 *1404:Q 0.00032427
4 *223:20 0.000223189
5 *223:12 0.00035851
6 *223:8 0.000360676
7 *223:8 *1323:A1 0
8 *223:8 *231:14 0.000135557
9 *223:20 *1237:B2 0
10 *223:20 *1240:A1 6.39489e-06
11 *223:20 *231:14 0
12 *1333:A0 *1333:A1 1.21972e-05
13 *1333:S *1333:A1 5.50106e-05
14 *1343:A0 *223:8 0
15 *1396:RESET_B *1333:A1 4.67488e-05
16 *1396:RESET_B *223:12 7.59794e-05
17 *108:8 *223:20 0.000168744
18 *175:76 *223:20 0.000364816
19 *175:78 *223:20 8.9458e-05
20 *175:97 *1333:A1 4.17736e-05
21 *175:97 *223:12 0.00014196
22 *177:76 *223:20 3.84478e-06
*RES
1 *1404:Q *223:8 43.7793 
2 *223:8 *223:12 16.5743 
3 *223:12 *223:20 36.2816 
4 *223:20 *1240:B2 23 
5 *223:12 *1333:A1 25.0507 
*END

*D_NET *224 0.00252407
*CONN
*I *1334:A1 I *D sky130_fd_sc_hd__mux2_1
*I *1247:B2 I *D sky130_fd_sc_hd__a221o_1
*I *1405:Q O *D sky130_fd_sc_hd__dfrtp_1
*CAP
1 *1334:A1 9.2923e-05
2 *1247:B2 0
3 *1405:Q 8.66078e-05
4 *224:20 0.000446139
5 *224:8 0.000625669
6 *224:20 *1247:A1 1.28818e-05
7 *18:10 *224:20 0.000116314
8 *110:6 *224:20 1.28818e-05
9 *110:10 *1334:A1 0.000166513
10 *110:10 *224:20 0.000524143
11 *115:14 *224:20 1.14452e-05
12 *116:14 *224:20 1.12487e-05
13 *175:68 *224:8 0.000121021
14 *175:70 *1334:A1 0
15 *178:20 *224:8 8.10857e-05
16 *188:60 *224:20 0.000207437
17 *200:87 *224:20 7.76364e-06
18 *201:88 *224:20 0
*RES
1 *1405:Q *224:8 40.5271 
2 *224:8 *224:20 27.5995 
3 *224:20 *1247:B2 23 
4 *224:8 *1334:A1 40.2579 
*END

*D_NET *225 0.00232857
*CONN
*I *1335:A1 I *D sky130_fd_sc_hd__mux2_1
*I *1263:A1 I *D sky130_fd_sc_hd__a211o_1
*I *1406:Q O *D sky130_fd_sc_hd__dfrtp_1
*CAP
1 *1335:A1 1.22655e-05
2 *1263:A1 0
3 *1406:Q 0.000288911
4 *225:22 0.000232207
5 *225:12 0.000244472
6 *225:10 0.000288911
7 *1260:A2 *1335:A1 4.2573e-05
8 *1260:A2 *225:22 0.000180218
9 *106:45 *225:22 0
10 *129:10 *225:22 0.000163185
11 *171:34 *225:22 4.68377e-05
12 *171:38 *225:10 3.3746e-05
13 *171:40 *225:10 7.91493e-05
14 *179:16 *1335:A1 5.50106e-05
15 *179:16 *225:22 9.67842e-05
16 *179:18 *225:10 8.93663e-05
17 *179:20 *225:10 3.55887e-05
18 *189:53 *225:10 0.000132178
19 *207:49 *225:22 0.000207991
20 *207:145 *225:10 9.91798e-05
*RES
1 *1406:Q *225:10 45.2707 
2 *225:10 *225:12 15 
3 *225:12 *225:22 35.3288 
4 *225:22 *1263:A1 23 
5 *225:12 *1335:A1 23.6214 
*END

*D_NET *226 0.00263557
*CONN
*I *1271:B2 I *D sky130_fd_sc_hd__a22o_1
*I *1336:A1 I *D sky130_fd_sc_hd__mux2_1
*I *1407:Q O *D sky130_fd_sc_hd__dfrtp_1
*CAP
1 *1271:B2 0.000481813
2 *1336:A1 0.000448319
3 *1407:Q 0.000105388
4 *226:8 0.00103552
5 *1260:A2 *1271:B2 0
6 *1271:A1 *1271:B2 0
7 *1403:CLK *1271:B2 3.3123e-05
8 *69:10 *1271:B2 0.000113153
9 *104:12 *1271:B2 0
10 *139:14 *1271:B2 0
11 *155:57 *1271:B2 0
12 *155:57 *1336:A1 0
13 *171:50 *226:8 5.47808e-05
14 *189:53 *1271:B2 3.83778e-05
15 *189:65 *1271:B2 0
16 *207:145 *1336:A1 0
17 *221:14 *1271:B2 7.1357e-05
18 *221:27 *1271:B2 0.00021673
19 *221:27 *1336:A1 3.70094e-05
*RES
1 *1407:Q *226:8 39.5743 
2 *226:8 *1336:A1 46.4514 
3 *226:8 *1271:B2 48.7093 
*END

*D_NET *227 0.0026378
*CONN
*I *1338:A1 I *D sky130_fd_sc_hd__mux2_1
*I *1234:A1 I *D sky130_fd_sc_hd__a22o_1
*I *1408:Q O *D sky130_fd_sc_hd__dfrtp_1
*CAP
1 *1338:A1 0
2 *1234:A1 0.000862566
3 *1408:Q 4.68303e-05
4 *227:21 0.000158859
5 *227:6 0.00106826
6 *1408:CLK *1234:A1 4.56101e-05
7 *1466:A *227:21 0
8 *175:27 *1234:A1 0.000105504
9 *186:38 *227:21 0.000272312
10 *213:6 *1234:A1 6.74969e-06
11 *213:6 *227:6 4.38068e-06
12 *213:14 *1234:A1 3.73435e-05
13 *219:23 *1234:A1 2.93845e-05
*RES
1 *1408:Q *227:6 23.6214 
2 *227:6 *1234:A1 34.1236 
3 *227:6 *227:21 33.6664 
4 *227:21 *1338:A1 23 
*END

*D_NET *228 0.00258318
*CONN
*I *1249:B2 I *D sky130_fd_sc_hd__a22o_1
*I *1339:A1 I *D sky130_fd_sc_hd__mux2_1
*I *1409:Q O *D sky130_fd_sc_hd__dfrtp_1
*CAP
1 *1249:B2 0.000138166
2 *1339:A1 0.000163485
3 *1409:Q 0.000371845
4 *228:8 0.000673497
5 *1339:S *1339:A1 9.5877e-05
6 *1365:RESET_B *1249:B2 0.000202721
7 *1409:RESET_B *1249:B2 6.32688e-05
8 *1409:RESET_B *1339:A1 1.83667e-05
9 *1452:A *1339:A1 9.75779e-05
10 *75:8 *1339:A1 4.58924e-05
11 *161:10 *228:8 5.66784e-05
12 *175:42 *1249:B2 0.000216721
13 *175:42 *1339:A1 0.000275473
14 *175:185 *1249:B2 0.000159531
15 *212:29 *1339:A1 4.08376e-06
*RES
1 *1409:Q *228:8 42.4329 
2 *228:8 *1339:A1 42.7643 
3 *228:8 *1249:B2 43.075 
*END

*D_NET *229 0.0021623
*CONN
*I *1340:A1 I *D sky130_fd_sc_hd__mux2_1
*I *1262:B2 I *D sky130_fd_sc_hd__a221o_1
*I *1410:Q O *D sky130_fd_sc_hd__dfrtp_1
*CAP
1 *1340:A1 0.000282276
2 *1262:B2 0.000269857
3 *1410:Q 0.000198705
4 *229:10 0.000750838
5 *1271:B1 *1262:B2 0.000309215
6 *1340:A0 *1340:A1 3.22879e-05
7 *104:12 *1262:B2 0
8 *104:12 *229:10 0
9 *104:29 *1262:B2 7.88926e-05
10 *111:32 *1340:A1 0.000185218
11 *139:14 *1262:B2 0
12 *139:14 *229:10 0
13 *213:14 *229:10 5.50106e-05
*RES
1 *1410:Q *229:10 41.2314 
2 *229:10 *1262:B2 44.033 
3 *229:10 *1340:A1 43.8621 
*END

*D_NET *230 0.00164655
*CONN
*I *1274:A1 I *D sky130_fd_sc_hd__a2111o_1
*I *1341:A1 I *D sky130_fd_sc_hd__mux2_1
*I *1411:Q O *D sky130_fd_sc_hd__dfrtp_1
*CAP
1 *1274:A1 0.000202952
2 *1341:A1 9.17329e-05
3 *1411:Q 0.000251473
4 *230:8 0.000546158
5 *103:35 *230:8 0.00019975
6 *118:12 *1274:A1 0
7 *118:12 *1341:A1 0
8 *156:29 *1341:A1 1.14452e-05
9 *171:121 *1274:A1 0.000209739
10 *171:121 *1341:A1 9.15299e-05
11 *190:40 *1274:A1 3.71369e-05
12 *207:78 *1341:A1 4.6318e-06
*RES
1 *1411:Q *230:8 41.9564 
2 *230:8 *1341:A1 39.9057 
3 *230:8 *1274:A1 42.06 
*END

*D_NET *231 0.00206564
*CONN
*I *1343:A1 I *D sky130_fd_sc_hd__mux2_1
*I *1237:A1 I *D sky130_fd_sc_hd__a22o_1
*I *1412:Q O *D sky130_fd_sc_hd__dfrtp_1
*CAP
1 *1343:A1 0
2 *1237:A1 0
3 *1412:Q 3.97708e-05
4 *231:25 0.00013759
5 *231:14 0.000490688
6 *231:6 0.000668049
7 *231:14 *1237:B2 6.03841e-05
8 *231:14 *1323:A1 3.884e-05
9 *1404:RESET_B *231:25 0.000114083
10 *177:34 *231:6 4.2573e-05
11 *177:34 *231:14 5.3304e-05
12 *177:36 *231:25 8.72173e-05
13 *177:62 *231:25 3.47781e-05
14 *187:70 *231:14 0.00016281
15 *187:78 *231:25 0
16 *223:8 *231:14 0.000135557
17 *223:20 *231:14 0
*RES
1 *1412:Q *231:6 23.6214 
2 *231:6 *231:14 38.3271 
3 *231:14 *1237:A1 23 
4 *231:6 *231:25 32.9621 
5 *231:25 *1343:A1 23 
*END

*D_NET *232 0.00351494
*CONN
*I *1248:B2 I *D sky130_fd_sc_hd__a22o_1
*I *1344:A1 I *D sky130_fd_sc_hd__mux2_1
*I *1413:Q O *D sky130_fd_sc_hd__dfrtp_1
*CAP
1 *1248:B2 0.000327157
2 *1344:A1 0.000258014
3 *1413:Q 0
4 *232:6 0.000585172
5 *1344:A1 *1260:B2 0.000181125
6 *86:37 *1248:B2 0.000354122
7 *106:60 *1344:A1 0.000110897
8 *160:25 *1248:B2 0.000171724
9 *160:25 *1344:A1 0.000101015
10 *173:136 *1344:A1 0.000308039
11 *189:21 *1248:B2 0.000395754
12 *189:27 *1248:B2 0.000164374
13 *189:27 *1344:A1 0.00032067
14 *206:28 *1248:B2 0.000236877
*RES
1 *1413:Q *232:6 38 
2 *232:6 *1344:A1 45.8507 
3 *232:6 *1248:B2 49.4964 
*END

*D_NET *233 0.00399659
*CONN
*I *1260:B2 I *D sky130_fd_sc_hd__a22o_1
*I *1345:A1 I *D sky130_fd_sc_hd__mux2_1
*I *1414:Q O *D sky130_fd_sc_hd__dfrtp_1
*CAP
1 *1260:B2 0.000280895
2 *1345:A1 0.00015283
3 *1414:Q 0.000688212
4 *233:8 0.00112194
5 *233:8 *234:10 5.50106e-05
6 *1344:A1 *1260:B2 0.000181125
7 *1414:RESET_B *233:8 6.16164e-05
8 *80:8 *1345:A1 0
9 *106:60 *1260:B2 0.000308039
10 *160:14 *1345:A1 7.69935e-05
11 *160:25 *1260:B2 0.000185755
12 *173:136 *1260:B2 6.9805e-05
13 *177:12 *233:8 0.000411905
14 *177:24 *1345:A1 5.94125e-05
15 *177:116 *1260:B2 0.000332911
16 *177:116 *1345:A1 1.01436e-05
17 *189:35 *1260:B2 0
18 *189:35 *1345:A1 0
*RES
1 *1414:Q *233:8 48.6264 
2 *233:8 *1345:A1 40.9621 
3 *233:8 *1260:B2 46.2029 
*END

*D_NET *234 0.00707801
*CONN
*I *1269:B2 I *D sky130_fd_sc_hd__a221o_1
*I *1346:A1 I *D sky130_fd_sc_hd__mux2_1
*I *1415:Q O *D sky130_fd_sc_hd__dfrtp_1
*CAP
1 *1269:B2 0.000105297
2 *1346:A1 0
3 *1415:Q 0.000206205
4 *234:25 0.00146421
5 *234:10 0.00156512
6 *1269:B2 *1296:A1 0.000323726
7 *234:25 *1213:A1 0
8 *234:25 *1227:A1 0
9 *1212:A *234:25 0.000216721
10 *1269:C1 *1269:B2 4.697e-05
11 *1269:C1 *234:25 0
12 *1353:RESET_B *234:25 0.000132119
13 *1414:CLK *234:10 1.14762e-05
14 *1415:RESET_B *234:10 9.41704e-05
15 *79:8 *234:25 0
16 *86:25 *234:25 0.000298718
17 *86:27 *234:25 0.000362956
18 *86:37 *234:25 0.000271373
19 *157:10 *234:10 2.77955e-05
20 *157:10 *234:25 0.000215791
21 *157:14 *234:10 0.000166513
22 *160:25 *234:25 0
23 *177:12 *234:10 9.5877e-05
24 *177:34 *234:10 0.000135037
25 *177:116 *234:25 7.70494e-05
26 *199:19 *234:25 0.000161898
27 *199:27 *234:25 0.000362773
28 *200:114 *234:25 3.27225e-05
29 *206:34 *234:25 0.000486891
30 *208:24 *1269:B2 8.77453e-05
31 *208:24 *234:25 7.38457e-05
32 *233:8 *234:10 5.50106e-05
*RES
1 *1415:Q *234:10 43.1371 
2 *234:10 *1346:A1 38 
3 *234:10 *234:25 46.9 
4 *234:25 *1269:B2 27.1273 
*END

*D_NET *235 0.00180343
*CONN
*I *1240:A1 I *D sky130_fd_sc_hd__a221o_1
*I *1348:A1 I *D sky130_fd_sc_hd__mux2_1
*I *1416:Q O *D sky130_fd_sc_hd__dfrtp_1
*CAP
1 *1240:A1 0.000321715
2 *1348:A1 0
3 *1416:Q 0
4 *235:12 0.000354291
5 *235:4 0.000676006
6 *1240:B1 *1240:A1 2.86696e-05
7 *1261:A2 *235:12 5.50049e-05
8 *107:30 *235:12 0
9 *109:69 *1240:A1 1.24376e-05
10 *177:76 *1240:A1 1.73873e-05
11 *206:44 *235:12 0.000331528
12 *223:20 *1240:A1 6.39489e-06
*RES
1 *1416:Q *235:4 23 
2 *235:4 *235:12 35.6343 
3 *235:12 *1348:A1 23 
4 *235:4 *1240:A1 27.5571 
*END

*D_NET *236 0.00168415
*CONN
*I *1246:B2 I *D sky130_fd_sc_hd__a22o_1
*I *1349:A1 I *D sky130_fd_sc_hd__mux2_1
*I *1417:Q O *D sky130_fd_sc_hd__dfrtp_1
*CAP
1 *1246:B2 0.0002091
2 *1349:A1 0.000288046
3 *1417:Q 6.94194e-05
4 *236:8 0.000566566
5 *1349:S *1349:A1 3.70187e-05
6 *173:33 *1246:B2 1.94685e-05
7 *173:33 *1349:A1 8.83237e-05
8 *173:46 *1246:B2 0.000307731
9 *178:49 *236:8 9.84794e-05
10 *188:47 *1349:A1 0
11 *188:67 *1349:A1 0
12 *188:80 *1246:B2 0
13 *188:80 *1349:A1 0
*RES
1 *1417:Q *236:8 39.0979 
2 *236:8 *1349:A1 43.5929 
3 *236:8 *1246:B2 43.075 
*END

*D_NET *237 0.000983689
*CONN
*I *1261:B2 I *D sky130_fd_sc_hd__a22o_1
*I *1350:A1 I *D sky130_fd_sc_hd__mux2_1
*I *1418:Q O *D sky130_fd_sc_hd__dfrtp_1
*CAP
1 *1261:B2 5.35853e-05
2 *1350:A1 0
3 *1418:Q 2.34823e-05
4 *237:14 0.000147242
5 *237:6 0.000224309
6 *1350:S *237:14 6.6869e-05
7 *1418:RESET_B *1261:B2 0.000259945
8 *1418:RESET_B *237:14 9.67842e-05
9 *158:8 *1261:B2 0.00010776
10 *158:8 *237:14 3.7122e-06
*RES
1 *1418:Q *237:6 23.4971 
2 *237:6 *237:14 33.0036 
3 *237:14 *1350:A1 23 
4 *237:6 *1261:B2 26.0036 
*END

*D_NET *238 0.00219448
*CONN
*I *1272:B2 I *D sky130_fd_sc_hd__a22o_1
*I *1351:A1 I *D sky130_fd_sc_hd__mux2_1
*I *1419:Q O *D sky130_fd_sc_hd__dfrtp_1
*CAP
1 *1272:B2 0
2 *1351:A1 0
3 *1419:Q 0.000199635
4 *238:21 0.000383315
5 *238:6 0.00058295
6 *238:21 *278:14 3.40618e-05
7 *107:18 *238:21 2.64616e-05
8 *109:29 *238:21 0.000550862
9 *175:144 *238:21 8.68732e-05
10 *207:18 *238:6 5.79559e-05
11 *207:18 *238:21 4.44329e-05
12 *207:28 *238:6 0.000227935
*RES
1 *1419:Q *238:6 26.0036 
2 *238:6 *1351:A1 23 
3 *238:6 *238:21 38.7829 
4 *238:21 *1272:B2 23 
*END

*D_NET *239 0.00245784
*CONN
*I *1227:A1 I *D sky130_fd_sc_hd__a221o_1
*I *1213:A1 I *D sky130_fd_sc_hd__mux2_1
*I *1352:Q O *D sky130_fd_sc_hd__dfrtp_1
*CAP
1 *1227:A1 0.00041671
2 *1213:A1 0.000294239
3 *1352:Q 9.43914e-05
4 *239:8 0.00080534
5 *1235:B *1227:A1 0
6 *1352:RESET_B *239:8 0.000139511
7 *95:33 *1227:A1 0.000212055
8 *106:8 *1227:A1 2.79004e-05
9 *110:10 *1213:A1 0
10 *110:10 *1227:A1 0
11 *140:6 *239:8 0.00019975
12 *178:20 *1213:A1 2.96369e-05
13 *192:23 *1227:A1 0.000238304
14 *197:105 *1227:A1 0
15 *199:27 *1227:A1 0
16 *234:25 *1213:A1 0
17 *234:25 *1227:A1 0
*RES
1 *1352:Q *239:8 41.9564 
2 *239:8 *1213:A1 42.3086 
3 *239:8 *1227:A1 46.5964 
*END

*D_NET *240 0.00117158
*CONN
*I *1248:A1 I *D sky130_fd_sc_hd__a22o_1
*I *1214:A1 I *D sky130_fd_sc_hd__mux2_1
*I *1353:Q O *D sky130_fd_sc_hd__dfrtp_1
*CAP
1 *1248:A1 0.000256122
2 *1214:A1 0
3 *1353:Q 9.78106e-05
4 *240:12 0.000256122
5 *240:10 9.78106e-05
6 *1214:A0 *240:10 8.62876e-05
7 *1215:S *240:10 8.4047e-05
8 *86:37 *1248:A1 0.000274388
9 *118:8 *1248:A1 1.37232e-05
10 *173:12 *240:10 5.26733e-06
*RES
1 *1353:Q *240:10 39.8229 
2 *240:10 *240:12 15 
3 *240:12 *1214:A1 23 
4 *240:12 *1248:A1 26.9771 
*END

*D_NET *241 0.00226873
*CONN
*I *1215:A1 I *D sky130_fd_sc_hd__mux2_1
*I *1262:A1 I *D sky130_fd_sc_hd__a221o_1
*I *1354:Q O *D sky130_fd_sc_hd__dfrtp_1
*CAP
1 *1215:A1 7.51199e-05
2 *1262:A1 0.000201908
3 *1354:Q 0.000309973
4 *241:8 0.000587001
5 *1271:B1 *1262:A1 0.000135037
6 *86:52 *1215:A1 0.000163361
7 *86:52 *1262:A1 0.00026569
8 *111:26 *241:8 8.71791e-05
9 *111:32 *241:8 0.0002263
10 *132:12 *1262:A1 4.67998e-05
11 *179:49 *1262:A1 3.96203e-05
12 *179:56 *1215:A1 7.45278e-05
13 *179:56 *1262:A1 5.6209e-05
*RES
1 *1354:Q *241:8 42.4329 
2 *241:8 *1262:A1 42.8886 
3 *241:8 *1215:A1 40.2579 
*END

*D_NET *242 0.00160173
*CONN
*I *1273:A1 I *D sky130_fd_sc_hd__a221o_1
*I *1216:A1 I *D sky130_fd_sc_hd__mux2_1
*I *1355:Q O *D sky130_fd_sc_hd__dfrtp_1
*CAP
1 *1273:A1 0.000159544
2 *1216:A1 0.000209305
3 *1355:Q 0.000165448
4 *242:10 0.000534298
5 *1273:A1 *274:10 7.56417e-05
6 *1216:A0 *1216:A1 9.84794e-05
7 *103:8 *1273:A1 0.000137174
8 *103:8 *242:10 5.31444e-05
9 *207:49 *242:10 0
10 *207:64 *1216:A1 0.000168694
*RES
1 *1355:Q *242:10 40.6514 
2 *242:10 *1216:A1 42.4329 
3 *242:10 *1273:A1 41.6664 
*END

*D_NET *243 0.00236528
*CONN
*I *1283:A1 I *D sky130_fd_sc_hd__mux2_1
*I *1219:B2 I *D sky130_fd_sc_hd__a22o_1
*I *1364:Q O *D sky130_fd_sc_hd__dfrtp_1
*CAP
1 *1283:A1 0
2 *1219:B2 0
3 *1364:Q 0.000100448
4 *243:20 0.000427378
5 *243:12 0.000609191
6 *243:8 0.000282262
7 *1356:CLK *243:20 5.26101e-05
8 *1433:A *243:12 5.10805e-05
9 *144:29 *243:20 0.000168744
10 *185:8 *243:12 9.5877e-05
11 *185:25 *243:12 0.000140259
12 *185:25 *243:20 0.000310641
13 *186:66 *243:8 0
14 *186:72 *243:12 1.21972e-05
15 *186:72 *243:20 0.000114595
*RES
1 *1364:Q *243:8 39.5536 
2 *243:8 *243:12 18.9564 
3 *243:12 *243:20 39.0729 
4 *243:20 *1219:B2 23 
5 *243:12 *1283:A1 23 
*END

*D_NET *244 0.00186545
*CONN
*I *1284:A1 I *D sky130_fd_sc_hd__mux2_1
*I *1249:A1 I *D sky130_fd_sc_hd__a22o_1
*I *1365:Q O *D sky130_fd_sc_hd__dfrtp_1
*CAP
1 *1284:A1 0.000208107
2 *1249:A1 0.000534194
3 *1365:Q 7.22915e-05
4 *244:8 0.000814592
5 *1284:S *1284:A1 4.37033e-05
6 *103:79 *1249:A1 2.93845e-05
7 *186:49 *1249:A1 0.00011218
8 *186:49 *244:8 5.09988e-05
*RES
1 *1365:Q *244:8 39.5536 
2 *244:8 *1249:A1 46.8243 
3 *244:8 *1284:A1 41.5007 
*END

*D_NET *245 0.00206419
*CONN
*I *1285:A1 I *D sky130_fd_sc_hd__mux2_1
*I *1257:A1 I *D sky130_fd_sc_hd__a221o_1
*I *1366:Q O *D sky130_fd_sc_hd__dfrtp_1
*CAP
1 *1285:A1 0
2 *1257:A1 0.000125338
3 *1366:Q 0
4 *245:21 0.000610888
5 *245:4 0.000736225
6 *1257:A2 *1257:A1 0.00016279
7 *1257:A2 *245:21 9.92683e-05
8 *32:10 *245:21 8.4047e-05
9 *169:33 *245:21 3.47645e-05
10 *171:149 *1257:A1 9.84794e-05
11 *205:31 *245:21 0.000108681
12 *217:25 *245:21 3.7122e-06
*RES
1 *1366:Q *245:4 23 
2 *245:4 *1257:A1 26.0243 
3 *245:4 *245:21 38.845 
4 *245:21 *1285:A1 23 
*END

*D_NET *246 0.00204957
*CONN
*I *1270:B2 I *D sky130_fd_sc_hd__a221o_1
*I *1286:A1 I *D sky130_fd_sc_hd__mux2_1
*I *1367:Q O *D sky130_fd_sc_hd__dfrtp_1
*CAP
1 *1270:B2 0.000125832
2 *1286:A1 0.000110114
3 *1367:Q 0.000351966
4 *246:8 0.000587912
5 *1270:B1 *1270:B2 0.00010394
6 *1320:S *1270:B2 7.30978e-05
7 *1321:S *1270:B2 1.7992e-05
8 *1321:S *1286:A1 5.82599e-05
9 *89:33 *1270:B2 0.000142818
10 *89:33 *1286:A1 0.000187707
11 *101:26 *1270:B2 6.39489e-06
12 *102:29 *1286:A1 1.39317e-05
13 *142:10 *1270:B2 1.22803e-05
14 *152:29 *246:8 0.000200616
15 *207:126 *1286:A1 5.67058e-05
*RES
1 *1367:Q *246:8 42.4329 
2 *246:8 *1286:A1 41.2314 
3 *246:8 *1270:B2 41.8166 
*END

*D_NET *247 0.00101915
*CONN
*I *1223:B2 I *D sky130_fd_sc_hd__a22o_1
*I *1288:A1 I *D sky130_fd_sc_hd__mux2_1
*I *1368:Q O *D sky130_fd_sc_hd__dfrtp_1
*CAP
1 *1223:B2 0
2 *1288:A1 4.58276e-05
3 *1368:Q 0.000215385
4 *247:12 4.58276e-05
5 *247:10 0.000215385
6 *247:10 *255:31 4.66036e-05
7 *1288:S *1288:A1 5.67058e-05
8 *1298:A0 *247:10 0
9 *136:8 *1288:A1 1.56665e-05
10 *168:25 *1288:A1 0.000228001
11 *204:80 *1288:A1 0.000140259
12 *204:80 *247:10 9.48381e-06
*RES
1 *1368:Q *247:10 41.3557 
2 *247:10 *247:12 15 
3 *247:12 *1288:A1 25.5271 
4 *247:12 *1223:B2 23 
*END

*D_NET *248 0.0022087
*CONN
*I *1289:A1 I *D sky130_fd_sc_hd__mux2_1
*I *1245:A1 I *D sky130_fd_sc_hd__a22o_1
*I *1369:Q O *D sky130_fd_sc_hd__dfrtp_1
*CAP
1 *1289:A1 0.000237626
2 *1245:A1 0.000231141
3 *1369:Q 0.00016087
4 *248:8 0.000629638
5 *1245:A1 *1245:B2 5.50049e-05
6 *1305:S *1289:A1 2.25203e-05
7 *1384:CLK *248:8 3.07986e-05
8 *50:8 *248:8 6.17437e-06
9 *99:16 *1245:A1 4.78593e-05
10 *146:54 *1289:A1 1.94693e-05
11 *147:12 *1245:A1 9.77922e-06
12 *173:71 *1245:A1 0
13 *173:71 *1289:A1 0
14 *173:101 *1245:A1 0.000202249
15 *176:38 *1245:A1 6.17437e-06
16 *182:57 *248:8 1.10915e-05
17 *191:53 *1245:A1 0
18 *191:53 *1289:A1 0
19 *214:41 *1245:A1 0.000321581
20 *214:41 *1289:A1 0.000216721
*RES
1 *1369:Q *248:8 40.0507 
2 *248:8 *1245:A1 44.4214 
3 *248:8 *1289:A1 42.5364 
*END

*D_NET *249 0.000725755
*CONN
*I *1257:B2 I *D sky130_fd_sc_hd__a221o_1
*I *1290:A1 I *D sky130_fd_sc_hd__mux2_1
*I *1370:Q O *D sky130_fd_sc_hd__dfrtp_1
*CAP
1 *1257:B2 5.32495e-05
2 *1290:A1 4.28968e-05
3 *1370:Q 9.13662e-05
4 *249:10 9.61463e-05
5 *249:8 9.13662e-05
6 *1290:S *1290:A1 2.93845e-05
7 *125:8 *1257:B2 3.08966e-05
8 *125:8 *1290:A1 3.17516e-05
9 *171:149 *1257:B2 8.63165e-05
10 *171:149 *1290:A1 0.000140259
11 *171:149 *249:8 0
12 *186:91 *249:8 3.21223e-05
*RES
1 *1370:Q *249:8 39.5536 
2 *249:8 *249:10 15 
3 *249:10 *1290:A1 24.5743 
4 *249:10 *1257:B2 24.7452 
*END

*D_NET *250 0.00255146
*CONN
*I *1291:A1 I *D sky130_fd_sc_hd__mux2_1
*I *1267:A1 I *D sky130_fd_sc_hd__a22o_1
*I *1371:Q O *D sky130_fd_sc_hd__dfrtp_1
*CAP
1 *1291:A1 0.000394183
2 *1267:A1 5.35058e-05
3 *1371:Q 0.000391075
4 *250:10 0.000838763
5 *1291:A0 *1291:A1 5.3304e-05
6 *1307:A *1267:A1 0.000114074
7 *1307:A *250:10 6.16531e-05
8 *53:10 *250:10 0
9 *150:14 *250:10 0
10 *193:43 *250:10 1.77877e-05
11 *193:55 *1267:A1 3.56433e-05
12 *193:55 *250:10 6.43253e-05
13 *193:62 *250:10 5.12328e-05
14 *208:68 *1291:A1 0.000475916
*RES
1 *1371:Q *250:10 44.4421 
2 *250:10 *1267:A1 39.5536 
3 *250:10 *1291:A1 43.8621 
*END

*D_NET *251 0.00254755
*CONN
*I *1230:A1 I *D sky130_fd_sc_hd__a221o_1
*I *1293:A1 I *D sky130_fd_sc_hd__mux2_1
*I *1372:Q O *D sky130_fd_sc_hd__dfrtp_1
*CAP
1 *1230:A1 0.000349929
2 *1293:A1 0
3 *1372:Q 0
4 *251:12 0.000144656
5 *251:4 0.000494585
6 *1230:A1 *263:14 1.28818e-05
7 *1230:B1 *1230:A1 5.3304e-05
8 *1372:RESET_B *251:12 0
9 *99:16 *1230:A1 0.000187069
10 *99:16 *251:12 2.04934e-05
11 *99:23 *1230:A1 0.000254324
12 *99:40 *1230:A1 0.000553046
13 *197:40 *1230:A1 5.17536e-05
14 *197:40 *251:12 2.25203e-05
15 *197:49 *1230:A1 7.45391e-05
16 *197:74 *1230:A1 0.000126674
17 *200:50 *1230:A1 6.24251e-05
18 *200:65 *1230:A1 0.000139346
*RES
1 *1372:Q *251:4 23 
2 *251:4 *251:12 32.2993 
3 *251:12 *1293:A1 23 
4 *251:4 *1230:A1 35.0764 
*END

*D_NET *252 0.00114935
*CONN
*I *1245:B2 I *D sky130_fd_sc_hd__a22o_1
*I *1294:A1 I *D sky130_fd_sc_hd__mux2_1
*I *1373:Q O *D sky130_fd_sc_hd__dfrtp_1
*CAP
1 *1245:B2 0.000175343
2 *1294:A1 0
3 *1373:Q 0.000215997
4 *252:6 0.00039134
5 *1245:A1 *1245:B2 5.50049e-05
6 *1294:S *1245:B2 2.93335e-05
7 *99:16 *1245:B2 5.3304e-05
8 *147:12 *1245:B2 2.02872e-05
9 *173:63 *252:6 2.64616e-05
10 *173:78 *252:6 0.000103478
11 *173:101 *1245:B2 4.94669e-05
12 *173:101 *252:6 2.93335e-05
*RES
1 *1373:Q *252:6 26.0036 
2 *252:6 *1294:A1 23 
3 *252:6 *1245:B2 26.5214 
*END

*D_NET *253 0.001022
*CONN
*I *1258:A1 I *D sky130_fd_sc_hd__a221o_1
*I *1295:A1 I *D sky130_fd_sc_hd__mux2_1
*I *1374:Q O *D sky130_fd_sc_hd__dfrtp_1
*CAP
1 *1258:A1 7.23014e-05
2 *1295:A1 4.09526e-05
3 *1374:Q 4.44546e-05
4 *253:10 0.000113254
5 *253:8 4.44546e-05
6 *1258:A2 *1258:A1 0.000120222
7 *1258:A2 *253:8 1.22803e-05
8 *1295:A0 *1258:A1 5.50106e-05
9 *1295:A0 *1295:A1 5.3304e-05
10 *167:41 *1258:A1 0.0002263
11 *167:41 *253:8 8.85189e-05
12 *186:91 *253:8 0.000114083
13 *208:39 *1258:A1 3.68672e-05
*RES
1 *1374:Q *253:8 39.5536 
2 *253:8 *253:10 15 
3 *253:10 *1295:A1 23.6214 
4 *253:10 *1258:A1 26.0036 
*END

*D_NET *254 0.00211199
*CONN
*I *1269:A1 I *D sky130_fd_sc_hd__a221o_1
*I *1296:A1 I *D sky130_fd_sc_hd__mux2_1
*I *1375:Q O *D sky130_fd_sc_hd__dfrtp_1
*CAP
1 *1269:A1 0
2 *1296:A1 0.000377753
3 *1375:Q 0.000197394
4 *254:12 0.000377753
5 *254:10 0.000197394
6 *1269:B2 *1296:A1 0.000323726
7 *1269:C1 *1296:A1 1.01917e-05
8 *101:10 *254:10 5.3304e-05
9 *101:26 *1296:A1 4.38068e-06
10 *106:20 *1296:A1 5.3304e-05
11 *167:10 *254:10 3.70094e-05
12 *167:31 *254:10 0.000164291
13 *182:10 *254:10 9.67842e-05
14 *186:97 *254:10 0.000194309
15 *209:106 *254:10 2.43944e-05
*RES
1 *1375:Q *254:10 42.6607 
2 *254:10 *254:12 15 
3 *254:12 *1296:A1 28.7586 
4 *254:12 *1269:A1 23 
*END

*D_NET *255 0.00178139
*CONN
*I *1223:A1 I *D sky130_fd_sc_hd__a22o_1
*I *1298:A1 I *D sky130_fd_sc_hd__mux2_1
*I *1376:Q O *D sky130_fd_sc_hd__dfrtp_1
*CAP
1 *1223:A1 0
2 *1298:A1 7.8347e-05
3 *1376:Q 0.000261711
4 *255:31 0.000461244
5 *255:16 0.000539591
6 *255:14 0.000261711
7 *1223:A2 *255:31 0
8 *1298:A0 *255:31 0
9 *1298:S *1298:A1 2.30292e-05
10 *24:10 *255:14 3.85883e-05
11 *24:10 *255:31 1.55622e-05
12 *133:10 *255:31 0
13 *148:32 *255:14 0
14 *195:10 *255:14 0
15 *195:25 *255:14 5.50049e-05
16 *247:10 *255:31 4.66036e-05
*RES
1 *1376:Q *255:14 42.35 
2 *255:14 *255:16 15 
3 *255:16 *1298:A1 24.0979 
4 *255:16 *255:31 37.6021 
5 *255:31 *1223:A1 23 
*END

*D_NET *256 0.0027675
*CONN
*I *1299:A1 I *D sky130_fd_sc_hd__mux2_1
*I *1251:A1 I *D sky130_fd_sc_hd__a221o_1
*I *1377:Q O *D sky130_fd_sc_hd__dfrtp_1
*CAP
1 *1299:A1 0
2 *1251:A1 0
3 *1377:Q 0.000329924
4 *256:20 0.000412938
5 *256:12 0.000412938
6 *256:10 0.000329924
7 *1377:RESET_B *256:10 5.03619e-05
8 *95:42 *256:10 4.08641e-05
9 *95:42 *256:20 0.000360011
10 *100:27 *256:20 1.14452e-05
11 *100:42 *256:20 0.000721835
12 *173:118 *256:20 7.44354e-05
13 *176:28 *256:20 1.32939e-05
14 *182:106 *256:10 9.52814e-06
*RES
1 *1377:Q *256:10 42.6814 
2 *256:10 *256:12 15 
3 *256:12 *256:20 41.7036 
4 *256:20 *1251:A1 23 
5 *256:12 *1299:A1 23 
*END

*D_NET *257 0.00109064
*CONN
*I *1259:B2 I *D sky130_fd_sc_hd__a221o_1
*I *1300:A1 I *D sky130_fd_sc_hd__mux2_1
*I *1378:Q O *D sky130_fd_sc_hd__dfrtp_1
*CAP
1 *1259:B2 4.36999e-05
2 *1300:A1 0.000184137
3 *1378:Q 5.10758e-05
4 *257:14 0.000362461
5 *257:8 0.000185701
6 *257:14 *269:12 5.67058e-05
7 *1300:S *1300:A1 3.22879e-05
8 *92:36 *257:8 4.08641e-05
9 *128:8 *257:8 4.08641e-05
10 *172:67 *1259:B2 8.65012e-06
11 *172:67 *1300:A1 7.6237e-05
12 *172:67 *257:14 7.96152e-06
*RES
1 *1378:Q *257:8 39.2014 
2 *257:8 *257:14 17.0714 
3 *257:14 *1300:A1 26.9564 
4 *257:14 *1259:B2 23.8286 
*END

*D_NET *258 0.00207687
*CONN
*I *1301:A1 I *D sky130_fd_sc_hd__mux2_1
*I *1268:A1 I *D sky130_fd_sc_hd__a221o_1
*I *1379:Q O *D sky130_fd_sc_hd__dfrtp_1
*CAP
1 *1301:A1 0.000176854
2 *1268:A1 0.000387937
3 *1379:Q 0.000130007
4 *258:8 0.000694799
5 *1268:A1 *1311:A1 1.71542e-05
6 *1268:A1 *266:10 0
7 *1379:RESET_B *1268:A1 0
8 *92:54 *1268:A1 5.61046e-05
9 *146:44 *1268:A1 9.28753e-05
10 *148:40 *1268:A1 6.48142e-05
11 *148:40 *1301:A1 0.000132665
12 *148:40 *258:8 0.000103647
13 *183:61 *1268:A1 0
14 *191:118 *1268:A1 5.15745e-05
15 *208:62 *1268:A1 2.64836e-05
16 *208:99 *1268:A1 0
17 *208:99 *1301:A1 0.000141954
*RES
1 *1379:Q *258:8 40.0507 
2 *258:8 *1268:A1 46.2236 
3 *258:8 *1301:A1 41.8321 
*END

*D_NET *259 0.0032412
*CONN
*I *1303:A1 I *D sky130_fd_sc_hd__mux2_1
*I *1227:B2 I *D sky130_fd_sc_hd__a221o_1
*I *1380:Q O *D sky130_fd_sc_hd__dfrtp_1
*CAP
1 *1303:A1 0.000417356
2 *1227:B2 0.000517744
3 *1380:Q 5.11715e-05
4 *259:8 0.000986271
5 *1224:D *1227:B2 0.000264559
6 *1303:A0 *1303:A1 0.000143286
7 *86:16 *1227:B2 7.6351e-05
8 *96:8 *1227:B2 5.90675e-06
9 *98:18 *1303:A1 0
10 *192:23 *1303:A1 0.000130667
11 *197:78 *1303:A1 0
12 *200:87 *1227:B2 0.000180218
13 *200:87 *1303:A1 0
14 *200:87 *259:8 0
15 *201:82 *259:8 0
16 *209:37 *1303:A1 3.14274e-05
17 *209:37 *259:8 1.94522e-05
18 *209:73 *259:8 1.01436e-05
19 *209:82 *1227:B2 0.000315857
20 *209:98 *1227:B2 9.0794e-05
*RES
1 *1380:Q *259:8 38.8493 
2 *259:8 *1227:B2 48.9786 
3 *259:8 *1303:A1 43.9864 
*END

*D_NET *260 0.00410027
*CONN
*I *1247:A1 I *D sky130_fd_sc_hd__a221o_1
*I *1304:A1 I *D sky130_fd_sc_hd__mux2_1
*I *1381:Q O *D sky130_fd_sc_hd__dfrtp_1
*CAP
1 *1247:A1 0.000484008
2 *1304:A1 2.55595e-05
3 *1381:Q 0.000102566
4 *260:35 0.000866373
5 *260:10 0.000407924
6 *260:8 0.000102566
7 *1236:C *260:35 4.35681e-06
8 *1238:C *1304:A1 0.00010018
9 *1238:C *260:35 0.000210461
10 *1247:A2 *1247:A1 2.02517e-05
11 *1247:B1 *1247:A1 2.64616e-05
12 *1381:RESET_B *260:8 0
13 *95:18 *1247:A1 9.58714e-05
14 *107:10 *260:35 9.1436e-05
15 *110:6 *1247:A1 6.80211e-05
16 *149:36 *1304:A1 5.50049e-05
17 *149:36 *260:35 0.000527794
18 *173:63 *260:8 7.55095e-05
19 *181:22 *1247:A1 5.79559e-05
20 *181:22 *260:35 4.98782e-05
21 *197:14 *260:8 4.06039e-05
22 *197:86 *1247:A1 0.000119486
23 *197:95 *1247:A1 6.22712e-05
24 *200:40 *1247:A1 0.000108383
25 *200:40 *260:35 2.34279e-05
26 *200:72 *1247:A1 0.000148698
27 *200:87 *1247:A1 0.000173442
28 *201:37 *260:35 1.14762e-05
29 *209:159 *260:35 2.18409e-05
30 *214:35 *260:35 0
31 *214:41 *260:35 5.58152e-06
32 *224:20 *1247:A1 1.28818e-05
*RES
1 *1381:Q *260:8 40.2579 
2 *260:8 *260:10 15 
3 *260:10 *1304:A1 24.0979 
4 *260:10 *260:35 39.6943 
5 *260:35 *1247:A1 35.0764 
*END

*D_NET *261 0.00412728
*CONN
*I *1256:A1 I *D sky130_fd_sc_hd__a22o_1
*I *1305:A1 I *D sky130_fd_sc_hd__mux2_1
*I *1382:Q O *D sky130_fd_sc_hd__dfrtp_1
*CAP
1 *1256:A1 0
2 *1305:A1 0.000263114
3 *1382:Q 0
4 *261:25 0.00152468
5 *261:6 0.00178779
6 *261:25 *1256:B2 1.94812e-05
7 *1305:A0 *1305:A1 0.000187129
8 *1305:S *1305:A1 5.41288e-05
9 *1386:RESET_B *261:25 2.8521e-05
10 *100:42 *261:25 1.76557e-05
11 *100:50 *261:25 3.22879e-05
12 *172:10 *1305:A1 0
13 *172:10 *261:25 5.40337e-05
14 *183:12 *261:25 7.83309e-07
15 *183:16 *261:25 5.03425e-05
16 *193:55 *261:25 6.05877e-05
17 *196:16 *1305:A1 0
18 *196:16 *261:25 0
19 *214:41 *261:25 4.67488e-05
*RES
1 *1382:Q *261:6 38 
2 *261:6 *1305:A1 44.0693 
3 *261:6 *261:25 34.9479 
4 *261:25 *1256:A1 23 
*END

*D_NET *262 0.000933542
*CONN
*I *1306:A1 I *D sky130_fd_sc_hd__mux2_1
*I *1267:B2 I *D sky130_fd_sc_hd__a22o_1
*I *1383:Q O *D sky130_fd_sc_hd__dfrtp_1
*CAP
1 *1306:A1 0
2 *1267:B2 0.000163501
3 *1383:Q 0.000221833
4 *262:6 0.000385335
5 *1383:RESET_B *262:6 6.17437e-06
6 *49:8 *262:6 1.21972e-05
7 *208:83 *262:6 0.000144501
*RES
1 *1383:Q *262:6 26.0036 
2 *262:6 *1267:B2 25.9 
3 *262:6 *1306:A1 23 
*END

*D_NET *263 0.00259305
*CONN
*I *1308:A1 I *D sky130_fd_sc_hd__mux2_1
*I *1230:B2 I *D sky130_fd_sc_hd__a221o_1
*I *1384:Q O *D sky130_fd_sc_hd__dfrtp_1
*CAP
1 *1308:A1 0.000101001
2 *1230:B2 0
3 *1384:Q 0.000123237
4 *263:14 0.0005125
5 *263:6 0.000736738
6 *263:14 *264:8 0
7 *1230:A1 *263:14 1.28818e-05
8 *1309:S *263:14 0.000127509
9 *93:27 *263:14 0
10 *98:18 *263:14 1.14452e-05
11 *115:14 *263:14 0.000164905
12 *147:8 *263:14 0
13 *150:18 *263:14 2.11887e-05
14 *176:38 *263:14 0.000460587
15 *182:47 *1308:A1 0.000127821
16 *182:47 *263:6 0.000185428
17 *197:74 *263:14 7.80291e-06
18 *200:65 *263:14 0
*RES
1 *1384:Q *263:6 25.0507 
2 *263:6 *263:14 42.268 
3 *263:14 *1230:B2 23 
4 *263:6 *1308:A1 24.5743 
*END

*D_NET *264 0.00133481
*CONN
*I *1309:A1 I *D sky130_fd_sc_hd__mux2_1
*I *1251:B2 I *D sky130_fd_sc_hd__a221o_1
*I *1385:Q O *D sky130_fd_sc_hd__dfrtp_1
*CAP
1 *1309:A1 5.79281e-05
2 *1251:B2 0.000172853
3 *1385:Q 8.69282e-05
4 *264:8 0.00031771
5 *1309:S *1309:A1 4.37033e-05
6 *1309:S *264:8 9.20311e-06
7 *1375:CLK *1251:B2 0.000135547
8 *1375:CLK *264:8 6.48142e-05
9 *1456:A *1251:B2 0
10 *92:18 *1251:B2 0
11 *115:14 *1251:B2 0
12 *116:14 *1251:B2 1.32314e-05
13 *147:40 *1309:A1 0.000153369
14 *170:29 *1251:B2 4.72739e-05
15 *173:118 *1309:A1 1.32939e-05
16 *173:118 *264:8 8.62876e-05
17 *191:68 *264:8 0.000132665
18 *263:14 *264:8 0
*RES
1 *1385:Q *264:8 40.61 
2 *264:8 *1251:B2 41.6716 
3 *264:8 *1309:A1 40.0714 
*END

*D_NET *265 0.000419383
*CONN
*I *1256:B2 I *D sky130_fd_sc_hd__a22o_1
*I *1310:A1 I *D sky130_fd_sc_hd__mux2_1
*I *1386:Q O *D sky130_fd_sc_hd__dfrtp_1
*CAP
1 *1256:B2 5.0691e-05
2 *1310:A1 0
3 *1386:Q 0
4 *265:10 0.000129956
5 *265:4 0.000180647
6 *1386:RESET_B *1256:B2 0
7 *100:42 *1256:B2 2.02517e-05
8 *100:42 *265:10 0
9 *100:50 *265:10 1.83564e-05
10 *150:14 *265:10 0
11 *261:25 *1256:B2 1.94812e-05
*RES
1 *1386:Q *265:4 23 
2 *265:4 *265:10 32.2579 
3 *265:10 *1310:A1 23 
4 *265:4 *1256:B2 24.1186 
*END

*D_NET *266 0.00202079
*CONN
*I *1311:A1 I *D sky130_fd_sc_hd__mux2_1
*I *1268:B2 I *D sky130_fd_sc_hd__a221o_1
*I *1387:Q O *D sky130_fd_sc_hd__dfrtp_1
*CAP
1 *1311:A1 7.92606e-05
2 *1268:B2 0
3 *1387:Q 0.000502774
4 *266:14 8.71615e-05
5 *266:10 0.000510675
6 *1268:A1 *1311:A1 1.71542e-05
7 *1268:A1 *266:10 0
8 *1268:B1 *1311:A1 3.22879e-05
9 *1268:B1 *266:14 3.02431e-05
10 *1268:C1 *1311:A1 0.00031495
11 *146:44 *1311:A1 0.000384207
12 *146:44 *266:14 7.93848e-06
13 *183:61 *266:10 0
14 *191:118 *266:10 5.41385e-05
*RES
1 *1387:Q *266:10 44.6907 
2 *266:10 *266:14 15.3314 
3 *266:14 *1268:B2 23 
4 *266:14 *1311:A1 27.7436 
*END

*D_NET *267 0.00199688
*CONN
*I *1219:A1 I *D sky130_fd_sc_hd__a22o_1
*I *1313:A1 I *D sky130_fd_sc_hd__mux2_1
*I *1388:Q O *D sky130_fd_sc_hd__dfrtp_1
*CAP
1 *1219:A1 8.12431e-05
2 *1313:A1 0.000106609
3 *1388:Q 0.000258192
4 *267:10 0.000446044
5 *1388:RESET_B *267:10 0.000132736
6 *112:12 *1219:A1 0.000204337
7 *112:12 *267:10 0.000162422
8 *176:12 *1313:A1 5.50106e-05
9 *176:20 *1313:A1 0.000137651
10 *194:43 *267:10 3.25516e-05
11 *204:16 *1219:A1 0.000218962
12 *204:16 *267:10 0.000161121
*RES
1 *1388:Q *267:10 42.785 
2 *267:10 *1313:A1 40.0507 
3 *267:10 *1219:A1 40.9621 
*END

*D_NET *268 0.00159068
*CONN
*I *1314:A1 I *D sky130_fd_sc_hd__mux2_1
*I *1250:A1 I *D sky130_fd_sc_hd__a221o_1
*I *1389:Q O *D sky130_fd_sc_hd__dfrtp_1
*CAP
1 *1314:A1 0
2 *1250:A1 0.000211204
3 *1389:Q 9.37627e-05
4 *268:10 0.000304966
5 *1250:A1 *1250:B2 6.17437e-06
6 *1250:A2 *1250:A1 2.02712e-05
7 *1252:D1 *1250:A1 0.000188926
8 *1253:A *1250:A1 1.21972e-05
9 *1253:C *1250:A1 5.3304e-05
10 *1277:B *1250:A1 1.01436e-05
11 *1277:B *268:10 0.000131744
12 *1314:S *1250:A1 1.14452e-05
13 *1314:S *268:10 0.000141869
14 *1393:CLK *1250:A1 8.68081e-05
15 *97:22 *1250:A1 0.000264559
16 *194:81 *268:10 5.3304e-05
*RES
1 *1389:Q *268:10 40.5271 
2 *268:10 *1250:A1 43.6136 
3 *268:10 *1314:A1 38 
*END

*D_NET *269 0.00209693
*CONN
*I *1315:A1 I *D sky130_fd_sc_hd__mux2_1
*I *1259:A1 I *D sky130_fd_sc_hd__a221o_1
*I *1390:Q O *D sky130_fd_sc_hd__dfrtp_1
*CAP
1 *1315:A1 0
2 *1259:A1 0
3 *1390:Q 0
4 *269:25 0.000504042
5 *269:12 0.000168775
6 *269:4 0.000672817
7 *1390:RESET_B *269:25 0.00013404
8 *56:14 *269:25 1.14452e-05
9 *56:24 *269:25 2.11887e-05
10 *88:12 *269:12 3.32734e-05
11 *88:27 *269:12 0.000162398
12 *97:35 *269:12 3.31683e-05
13 *172:67 *269:12 1.14762e-05
14 *172:86 *269:25 1.14452e-05
15 *184:89 *269:12 0.000114092
16 *194:19 *269:25 0.000162062
17 *205:31 *269:25 0
18 *257:14 *269:12 5.67058e-05
*RES
1 *1390:Q *269:4 23 
2 *269:4 *269:12 34.0807 
3 *269:12 *1259:A1 23 
4 *269:4 *269:25 37.54 
5 *269:25 *1315:A1 23 
*END

*D_NET *270 0.00256545
*CONN
*I *1316:A1 I *D sky130_fd_sc_hd__mux2_1
*I *1270:A1 I *D sky130_fd_sc_hd__a221o_1
*I *1391:Q O *D sky130_fd_sc_hd__dfrtp_1
*CAP
1 *1316:A1 0.000453867
2 *1270:A1 0.000445623
3 *1391:Q 0
4 *270:6 0.00089949
5 *1250:B1 *1270:A1 0
6 *55:10 *1270:A1 1.14452e-05
7 *55:10 *1316:A1 0.000140949
8 *88:50 *1270:A1 0.000242343
9 *101:26 *1270:A1 3.23917e-05
10 *118:12 *1270:A1 0
11 *151:18 *1316:A1 1.94693e-05
12 *171:125 *1270:A1 0.000170817
13 *171:125 *1316:A1 0.000141294
14 *207:128 *1270:A1 7.76364e-06
*RES
1 *1391:Q *270:6 38 
2 *270:6 *1270:A1 47.2386 
3 *270:6 *1316:A1 45.0221 
*END

*D_NET *271 0.00269986
*CONN
*I *1241:A1 I *D sky130_fd_sc_hd__a2111o_1
*I *1318:A1 I *D sky130_fd_sc_hd__mux2_1
*I *1392:Q O *D sky130_fd_sc_hd__dfrtp_1
*CAP
1 *1241:A1 9.30062e-05
2 *1318:A1 3.89875e-05
3 *1392:Q 0.000725721
4 *271:8 0.000857715
5 *1392:D *271:8 0.000135037
6 *1392:RESET_B *271:8 6.15432e-05
7 *101:32 *1241:A1 4.21594e-06
8 *102:37 *1241:A1 0
9 *105:8 *1241:A1 0.000240695
10 *105:8 *1318:A1 8.62876e-05
11 *118:12 *1241:A1 0
12 *175:50 *271:8 3.14245e-05
13 *190:49 *271:8 3.65917e-05
14 *220:25 *1241:A1 0.000302358
15 *220:25 *1318:A1 8.62783e-05
*RES
1 *1392:Q *271:8 46.7207 
2 *271:8 *1318:A1 39.2014 
3 *271:8 *1241:A1 42.0186 
*END

*D_NET *272 0.00305816
*CONN
*I *1250:B2 I *D sky130_fd_sc_hd__a221o_1
*I *1319:A1 I *D sky130_fd_sc_hd__mux2_1
*I *1393:Q O *D sky130_fd_sc_hd__dfrtp_1
*CAP
1 *1250:B2 0.000160914
2 *1319:A1 3.94129e-05
3 *1393:Q 0.000779608
4 *272:8 0.000979935
5 *1250:A1 *1250:B2 6.17437e-06
6 *1250:A2 *1250:B2 8.05137e-05
7 *1250:B1 *1250:B2 0.000110175
8 *1393:CLK *272:8 0.000109052
9 *1393:RESET_B *272:8 0.000130525
10 *97:22 *1250:B2 4.70381e-05
11 *101:32 *1250:B2 0.000108951
12 *101:32 *1319:A1 0.000116314
13 *112:12 *1250:B2 0.000275473
14 *112:12 *1319:A1 0.000114074
*RES
1 *1393:Q *272:8 47.6736 
2 *272:8 *1319:A1 39.5536 
3 *272:8 *1250:B2 43.8777 
*END

*D_NET *273 0.00253985
*CONN
*I *1320:A1 I *D sky130_fd_sc_hd__mux2_1
*I *1258:B2 I *D sky130_fd_sc_hd__a221o_1
*I *1394:Q O *D sky130_fd_sc_hd__dfrtp_1
*CAP
1 *1320:A1 0.0003545
2 *1258:B2 0
3 *1394:Q 0.000254196
4 *273:14 9.30516e-05
5 *273:6 0.000701748
6 *1394:D *1320:A1 4.56101e-05
7 *1394:RESET_B *1320:A1 9.62666e-05
8 *92:27 *273:14 0.000219882
9 *102:66 *273:14 0.000192077
10 *167:41 *273:14 6.39489e-06
11 *184:72 *1320:A1 0.000259077
12 *194:87 *1320:A1 0.000310647
13 *208:39 *273:14 6.39489e-06
*RES
1 *1394:Q *273:6 26.9564 
2 *273:6 *273:14 33.1123 
3 *273:14 *1258:B2 23 
4 *273:6 *1320:A1 31.7207 
*END

*D_NET *274 0.00168084
*CONN
*I *1321:A1 I *D sky130_fd_sc_hd__mux2_1
*I *1273:B2 I *D sky130_fd_sc_hd__a221o_1
*I *1395:Q O *D sky130_fd_sc_hd__dfrtp_1
*CAP
1 *1321:A1 0.000444534
2 *1273:B2 1.49305e-05
3 *1395:Q 0.000144657
4 *274:12 0.000459465
5 *274:10 0.000144657
6 *1273:A1 *274:10 7.56417e-05
7 *1273:B1 *1273:B2 2.85818e-05
8 *1273:B1 *1321:A1 3.46255e-05
9 *86:74 *1321:A1 4.00854e-05
10 *140:12 *274:10 7.8128e-05
11 *141:10 *1321:A1 0.000183247
12 *207:64 *274:10 3.22879e-05
*RES
1 *1395:Q *274:10 40.8793 
2 *274:10 *274:12 15 
3 *274:12 *1273:B2 23.3314 
4 *274:12 *1321:A1 31.265 
*END

*D_NET *275 0.00223326
*CONN
*I *1237:B2 I *D sky130_fd_sc_hd__a22o_1
*I *1323:A1 I *D sky130_fd_sc_hd__mux2_1
*I *1396:Q O *D sky130_fd_sc_hd__dfrtp_1
*CAP
1 *1237:B2 0.000155399
2 *1323:A1 0.000609375
3 *1396:Q 4.37463e-05
4 *275:8 0.00080852
5 *1323:A0 *1323:A1 5.22521e-05
6 *1396:RESET_B *275:8 0.000128391
7 *1412:CLK *1323:A1 1.78821e-05
8 *70:10 *1323:A1 0
9 *78:10 *1323:A1 0
10 *107:30 *1237:B2 0
11 *175:97 *275:8 0.000228903
12 *187:70 *1323:A1 8.95707e-05
13 *223:8 *1323:A1 0
14 *223:20 *1237:B2 0
15 *231:14 *1237:B2 6.03841e-05
16 *231:14 *1323:A1 3.884e-05
*RES
1 *1396:Q *275:8 40.5271 
2 *275:8 *1323:A1 47.0521 
3 *275:8 *1237:B2 40.9621 
*END

*D_NET *276 0.000863145
*CONN
*I *1246:A1 I *D sky130_fd_sc_hd__a22o_1
*I *1324:A1 I *D sky130_fd_sc_hd__mux2_1
*I *1397:Q O *D sky130_fd_sc_hd__dfrtp_1
*CAP
1 *1246:A1 0.000117198
2 *1324:A1 0
3 *1397:Q 0
4 *276:12 0.000101636
5 *276:4 0.000218835
6 *109:14 *1246:A1 7.44257e-05
7 *109:14 *276:12 2.64616e-05
8 *109:25 *1246:A1 2.4754e-05
9 *173:46 *276:12 0.00019747
10 *178:59 *276:12 0.000102365
*RES
1 *1397:Q *276:4 23 
2 *276:4 *276:12 33.2314 
3 *276:12 *1324:A1 23 
4 *276:4 *1246:A1 25.5479 
*END

*D_NET *277 0.00217575
*CONN
*I *1261:A1 I *D sky130_fd_sc_hd__a22o_1
*I *1325:A1 I *D sky130_fd_sc_hd__mux2_1
*I *1398:Q O *D sky130_fd_sc_hd__dfrtp_1
*CAP
1 *1261:A1 0
2 *1325:A1 0
3 *1398:Q 0
4 *277:25 0.000384388
5 *277:12 0.000218785
6 *277:4 0.000603173
7 *1325:A0 *277:12 0.00019747
8 *1350:A0 *277:12 3.70187e-05
9 *1350:S *277:25 0
10 *1398:RESET_B *277:12 0
11 *1398:RESET_B *277:25 8.4047e-05
12 *1418:RESET_B *277:25 0.000225275
13 *130:10 *277:25 1.15307e-05
14 *171:8 *277:12 0.00014196
15 *171:8 *277:25 0.000173898
16 *171:34 *277:25 9.8203e-05
*RES
1 *1398:Q *277:4 23 
2 *277:4 *277:12 34.5364 
3 *277:12 *1325:A1 23 
4 *277:4 *277:25 37.3743 
5 *277:25 *1261:A1 23 
*END

*D_NET *278 0.00167727
*CONN
*I *1272:A1 I *D sky130_fd_sc_hd__a22o_1
*I *1326:A1 I *D sky130_fd_sc_hd__mux2_1
*I *1399:Q O *D sky130_fd_sc_hd__dfrtp_1
*CAP
1 *1272:A1 0
2 *1326:A1 0
3 *1399:Q 0.000129283
4 *278:25 7.14382e-05
5 *278:14 0.000336938
6 *278:6 0.000537659
7 *107:26 *278:25 0.000249909
8 *109:29 *278:25 0.000249909
9 *153:42 *278:14 1.68817e-05
10 *153:59 *278:14 5.119e-05
11 *238:21 *278:14 3.40618e-05
*RES
1 *1399:Q *278:6 24.5743 
2 *278:6 *278:14 34.4329 
3 *278:14 *1326:A1 23 
4 *278:6 *278:25 33.3143 
5 *278:25 *1272:A1 23 
*END
